PT	AU	BA	BE	GP	AF	BF	CA	TI	SO	SE	BS	LA	DT	CT	CY	CL	SP	HO	DE	ID	AB	C1	RP	EM	RI	OI	FU	FX	CR	NR	TC	Z9	U1	U2	PU	PI	PA	SN	EI	BN	J9	JI	PD	PY	VL	IS	PN	SU	SI	MA	BP	EP	AR	DI	D2	EA	EY	PG	WC	SC	GA	UT	PM	OA	HC	HP	DA
J	SALANCIK, GR				SALANCIK, GR			INTERORGANIZATIONAL DEPENDENCE AND RESPONSIVENESS TO AFFIRMATIVE-ACTION - CASE OF WOMEN AND DEFENSE CONTRACTORS	ACADEMY OF MANAGEMENT JOURNAL			English	Article										SALANCIK, GR (reprint author), UNIV ILLINOIS,URBANA,IL 61801, USA.						BEM DJ, 1973, PSYCHOLOGY SOCIAL IS, P261; BENSON JK, 1975, ADMIN SCI QUART, V20, P229, DOI 10.2307/2391696; Blau P., 1964, EXCHANGE POWER SOCIA; *COUNC EC PRIOR, 1974, GUID CORP SOC PERSP; Crenson M., 1971, UNPOLITICS AIR POLLU; CYERT RM, 1963, BEHAVIORAL THEORY FI; EMERSON RM, 1962, AM SOCIOL REV, V27, P31, DOI 10.2307/2089716; FRIEDLANDER F, 1968, ADMIN SCI QUART, V13, P289, DOI 10.2307/2391456; Hall R. H., 1972, ORG STRUCTURE PROCES; HICKSON DJ, 1971, ADMIN SCI QUART, V16, P216, DOI 10.2307/2391831; HUNT RG, 1971, SOC FORCES, V49, P414, DOI 10.2307/3005734; JACOBS D, 1974, ADMIN SCI QUART, V19, P45, DOI 10.2307/2391787; KATZ D, 1966, SOCIAL PSYCHOLOGY; March J. G., 1958, ORGANIZATIONS; MINDLIN SE, 1975, ADMIN SCI QUART, V20, P382, DOI 10.2307/2391998; PFEFFER J, 1972, ACAD MANAGE J, V15, P317, DOI 10.2307/254856; PFEFFER J, 1977, SOC FORCES, V55, P775, DOI 10.2307/2577470; Pfeffer J., 1978, EXTERNAL CONTROL ORG; RANDALL R, 1973, ADMIN SCI QUART, V18, P236, DOI 10.2307/2392066; Thompson J. P., 1967, ORG ACTION; Webb E., 1966, UNOBTRUSIVE MEASURES; WHITE PE, 1974, ADMIN SCI QUART, V19, P366, DOI 10.2307/2391978; WINER BJ, 1962, EXPT DESIGN; YUCHTMAN E, 1967, AM SOCIOL REV, V32, P891, DOI 10.2307/2092843; 1972, EC PRIORITIES REPORT, V3	25	79	79	2	13	ACAD MANAGEMENT	ADA	PO BOX 39 300 SOUTH UNION STREET, ADA, OH 45810-0039	0001-4273			ACAD MANAGE J	Acad. Manage. J.		1979	22	2					375	394		10.2307/255596				20	Business; Management	Business & Economics	GW703	WOS:A1979GW70300012					2019-01-18	
J	POWELL, GN; BUTTERFIELD, DA				POWELL, GN; BUTTERFIELD, DA			GOOD MANAGER - MASCULINE OR ANDROGYNOUS	ACADEMY OF MANAGEMENT JOURNAL			English	Article									UNIV MASSACHUSETTS,SCH BUSINESS,AMHERST,MA 01002	POWELL, GN (reprint author), UNIV CONNECTICUT,STORRS,CT 06268, USA.						BASIL DC, 1973, WOMEN MANAGEMENT; BEM SL, 1975, J PERS SOC PSYCHOL, V31, P634, DOI 10.1037/h0077098; BEM SL, 1976, J PERS SOC PSYCHOL, V33, P48, DOI 10.1037/h0078640; BEM SL, 1974, J CONSULT CLIN PSYCH, V42, P155, DOI 10.1037/h0036215; BROVERMAN IK, 1972, J SOC ISSUES, V28, P59, DOI 10.1111/j.1540-4560.1972.tb00018.x; Bruning JL, 1968, COMPUTATIONAL HDB ST; GOLDBERG PA, 1968, TRANSACTION      APR, P28; HEILBRUN AB, 1976, J CONSULT CLIN PSYCH, V44, P183, DOI 10.1037/0022-006X.44.2.183; KRAVETZ DF, 1976, J CONSULT CLIN PSYCH, V44, P437, DOI 10.1037/0022-006X.44.3.437; OSBORN RN, 1976, ACAD MANAGE J, V19, P439, DOI 10.2307/255609; PHETERSON GI, 1971, J PERS SOC PSYCHOL, V19, P114, DOI 10.1037/h0031215; SCHEIN VE, 1973, J APPL PSYCHOL, V57, P95, DOI 10.1037/h0037128; SCHEIN VE, 1975, J APPL PSYCHOL, V60, P340, DOI 10.1037/h0076637; SPENCE JT, 1975, J PERS SOC PSYCHOL, V32, P29, DOI 10.1037/h0076857; TAVRIS C, 1977, PSYCHOL TODAY, V10, P34	15	166	166	0	11	ACAD MANAGEMENT	ADA	PO BOX 39 300 SOUTH UNION STREET, ADA, OH 45810-0039	0001-4273			ACAD MANAGE J	Acad. Manage. J.		1979	22	2					395	403		10.2307/255597				9	Business; Management	Business & Economics	GW703	WOS:A1979GW70300013					2019-01-18	
J	KIMBERLY, JR				KIMBERLY, JR			ISSUES IN THE CREATION OF ORGANIZATIONS - INITIATION, INNOVATION, AND INSTITUTIONALIZATION	ACADEMY OF MANAGEMENT JOURNAL			English	Article										KIMBERLY, JR (reprint author), YALE UNIV,NEW HAVEN,CT 06520, USA.						Aldrich H. E, 1979, ORG ENV; BLOOMFIELD DK, 1972, J AM MEDICAL ASS, V213, P187; COUNTE MA, 1974, J HEALTH SOC BEHAV, V15, P188, DOI 10.2307/2137019; Cummings Larry L., 1977, NEW PERSPECT ORGAN, p[56, 60]; Goodman P., 1977, NEW PERSPECTIVES ORG; GOODMAN P, 1979, RES ORG BEHAVIOR, V2; Hall R. H., 1972, ORG STRUCTURE PROCES; KIMBERLY JR, 1976, ADMIN SCI QUART, V21, P571, DOI 10.2307/2391717; KIMBERLY JR, 1976, SOCIOL METHOD RES, V4, P321, DOI 10.1177/004912417600400303; KIMBERLY JR, 1977, PRESCRIPTIVE MODELS, V5, P143; KIMBERLY JR, 1980, HDB ORG DESIGN; KIMBERLY JR, 1972, 11TH P ANN C RES MED, P26; MAHONEY TA, 1969, ADMIN SCI QUART, V14, P357, DOI 10.2307/2391131; Meyer M. W., 1978, ENV ORG; PERROW C, 1970, ORG ANAL SOC VIEW; Pfeffer J., 1978, EXTERNAL CONTROL ORG; Pfeffer J., 1977, NEW PERSPECT ORGAN, P132; Price J. L., 1968, ORG EFFECTIVENESS; Rogers E. M., 1971, COMMUNICATION INNOVA; Sarason S. B., 1972, CREATION SETTINGS FU; SORLIE W, 1971, ILLINOIS MEDICINE, V40, P206; Starbuck W, 1971, ORG GROWTH DEV; Starbuck W. H., 1965, HDB ORG, P451; STEERS RM, 1975, ADMIN SCI QUART, V20, P546, DOI 10.2307/2392022; Stinchcombe A.L., 1965, HDB ORG, P142; Thompson J. P., 1967, ORG ACTION; YUCHTMAN E, 1967, AM SOCIOL REV, V32, P891, DOI 10.2307/2092843; Zaltman G., 1973, INNOVATIONS ORG	28	164	164	1	37	ACAD MANAGEMENT	ADA	PO BOX 39 300 SOUTH UNION STREET, ADA, OH 45810-0039	0001-4273			ACAD MANAGE J	Acad. Manage. J.		1979	22	3					437	457		10.2307/255737				21	Business; Management	Business & Economics	HJ678	WOS:A1979HJ67800001	10248231				2019-01-18	
J	GIFFORD, WE; BOBBITT, HR; SLOCUM, JW				GIFFORD, WE; BOBBITT, HR; SLOCUM, JW			MESSAGE CHARACTERISTICS AND PERCEPTIONS OF UNCERTAINTY BY ORGANIZATIONAL DECISION MAKERS	ACADEMY OF MANAGEMENT JOURNAL			English	Article									OHIO STATE UNIV,COLUMBUS,OH 43210; SO METHODIST UNIV,DALLAS,TX 75275	GIFFORD, WE (reprint author), INDIANA UNIV,INDIANAPOLIS,IN 46204, USA.						ABELSON RP, 1963, COMPUTER SIMULATION, P227; ALDAG RJ, UNPUBLISHED; Allison Graham T, 1971, ESSENCE DECISION EXP; BEACH LR, 1978, ORGAN BEHAV HUM PERF, V21, P1, DOI 10.1016/0030-5073(78)90034-X; BUDNER S, 1962, J PERS, V30, P29; Burns T., 1962, MANAGEMENT INNOVATIO; CARNAP R, 1962, LOGICAL F PROBABILIT, P23; Connolly T., 1977, NEW DIRECTIONS ORG B, P205; Conrath D.W, 1967, MANAGE SCI, V13; CROCKER O, 1977, 7711 OFF NAV RES ORG; DOWNEY HK, 1977, HUM RELAT, V30, P161, DOI 10.1177/001872677703000205; DOWNEY HK, 1975, ACAD MANAGE J, V18, P562, DOI 10.2307/255685; DOWNEY HK, 1975, ADMIN SCI QUART, V20, P613, DOI 10.2307/2392027; DRIVER MJ, 1975, ACCOUNT REV, V50, P490; DRIVER MJ, 1972, PSYCHOL REP, V31, P879, DOI 10.2466/pr0.1972.31.3.879; DRIVER MJ, 1965, 114 PURD U I RES BEH; DUNCAN RB, 1972, ADMIN SCI QUART, V17, P313, DOI 10.2307/2392145; EMERY FE, 1965, HUM RELAT, V18, P21, DOI 10.1177/001872676501800103; Ford J. D., 1977, ACAD MANAGE REV, V2, P561; GARNER WR, 1962, UNCERTAINTY STRUCTUR; GIFFORD W, 1977, 20TH P ANN C MIDW DI, P64; Guilford J. P., 1954, PSYCHOMETRIC METHODS; HEIDER R, 1959, PSYCHOLOGICAL ISSUES, V1, P35; HUNSAKER P, 1973, 33RD AC MAN P ANN M, P225; HUNSAKER PL, 1975, ORGAN BEHAV HUM PERF, V14, P173, DOI 10.1016/0030-5073(75)90022-7; Janis I. L., 1977, DECISION MAKING PSYC; KEPPEL G, 1973, DESIGN ANAL RES HDB; Lawrence P. R., 1967, ORG ENV MANAGING DIF; LINDBLOM CE, 1959, PUBLIC ADMIN REV, V19, P79, DOI 10.2307/973677; LORENZI P, 1978, 38TH M AC MAN SAN FR; LUCE R. D., 1957, GAMES DECISIONS; MCCASKEY MB, 1976, MANAGEMENT ORG DESIG, V2, P59; MILES RE, 1974, IND RELAT, V13, P244, DOI 10.1111/j.1468-232X.1974.tb00581.x; MILLER GA, 1956, PSYCHOL REV, V63, P81, DOI 10.1037//0033-295X.101.2.343; Newell A, 1972, HUMAN PROBLEM SOLVIN; Nunnally JC, 1967, PSYCHOMETRIC THEORY; OCONNELL MJ, 1976, J APPL PSYCHOL, V61, P493, DOI 10.1037//0021-9010.61.4.493; Pfeffer J., 1978, ORG DESIGN; Shackle George L. S., 1961, DECISION ORDER TIME; Shannon C. E., 1949, MATH THEORY COMMUNIC; SLOVIC P, 1977, ANNU REV PSYCHOL, V27, P1; Starbuck W. H, 1976, HDB IND ORG PSYCHOL, P1069; STREUFERT S, 1970, ORGAN BEHAV HUM PERF, V5, P15, DOI 10.1016/0030-5073(70)90003-6; TERREBERRY S, 1968, ADMIN SCI QUART, V12, P590, DOI 10.2307/2391535; Thompson J. P., 1967, ORG ACTION; TOSI H, 1973, ADMIN SCI QUART, V18, P27, DOI 10.2307/2391925; VONMISES R, 1964, MATH THEORY PROBABIL, P1; WHITE D, 1969, DECISION THEORY, P54	48	42	43	1	6	ACAD MANAGEMENT	ADA	PO BOX 39 300 SOUTH UNION STREET, ADA, OH 45810-0039	0001-4273			ACAD MANAGE J	Acad. Manage. J.		1979	22	3					458	481		10.2307/255738				24	Business; Management	Business & Economics	HJ678	WOS:A1979HJ67800002					2019-01-18	
J	TUSHMAN, ML				TUSHMAN, ML			IMPACTS OF PERCEIVED ENVIRONMENTAL VARIABILITY ON PATTERNS OF WORK RELATED COMMUNICATION	ACADEMY OF MANAGEMENT JOURNAL			English	Article										TUSHMAN, ML (reprint author), COLUMBIA UNIV,NEW YORK,NY 10027, USA.						Allen T. J., 1977, MANAGING FLOW TECHNO; ALLEN TJ, 1969, ADMIN SCI QUART, V14, P12, DOI 10.2307/2391357; ANDREW F, 1967, PERSONNEL PSYCHOLOGY, V20, P12; Ashby WR, 1956, INTRO CYBERNETICS; BECKER SW, 1969, ADMIN SCI QUART, V14, P260, DOI 10.2307/2391104; BUCKLEY W, 1967, SOC MODERN SYSTEMS T; Burns T., 1966, MANAGEMENT INNOVATIO; CONNOLLY T, 1975, IEEE T ENG MANAGE, VEM22, P50, DOI 10.1109/TEM.1975.6447205; CZEPIEL JA, 1975, ACAD MANAGE J, V18, P6, DOI 10.2307/255621; DEARBORN DC, 1958, SOCIOMETRY, V21, P140, DOI 10.2307/2785898; DRIVER MJ, 1969, ADMIN SCI QUART, V14, P272, DOI 10.2307/2391105; DUNCAN RB, 1972, ADMIN SCI QUART, V17, P313, DOI 10.2307/2392145; DUNCAN RB, 1973, HUM RELAT, V26, P273, DOI 10.1177/001872677302600301; FARRIS G, 1972, R&D MANAGE, V3, P23, DOI DOI 10.1111/J.1467-9310.1972.TB00992.X; Galbraith J. R., 1977, ORG DESIGN; GALBRAITH JR, 1973, DESIGNING COMPLEX OR; GERSTBERGER PG, 1968, J APPL PSYCHOL, V52, P272, DOI 10.1037/h0026041; GLANZER M, 1961, PSYCHOL BULL, V58, P1, DOI 10.1037/h0041302; JACOBY J, 1974, J MARKETING RES, V11, P63, DOI 10.2307/3150994; KATZ D, 1966, SOCIAL PSYCHOLOGY; KELLER RT, 1975, ACAD MANAGE J, V18, P388, DOI 10.2307/255542; KELLY P, 1975, TECHNOLOGICAL INNOVA; LANZETTA J, 1963, J ABNORMAL SOCIAL PS, V53, P307; Lawrence P. R., 1967, ORG ENV; LIPETZ BA, 1965, MEASUREMENT EFFICIEN; Maier N. R. F., 1970, PROBLEM SOLVING CREA; March J. G., 1958, ORGANIZATIONS; MENZEL H, 1966, ANNU REV INFORM SCI, V1, P41; Miller R, 1971, INNOVATION ORG ENV; Myers S., 1969, SUCCESSFUL IND INNOV; NEGANDHI A, 1973, HUM RELAT, V26, P303; Pelz D. C., 1966, SCI ORG; PENNINGS JM, 1975, ADMIN SCI QUART, V20, P393, DOI 10.2307/2391999; PORTER L. W., 1976, HDB IND ORG PSYCHOL, P1553; Price J. L., 1968, ORG EFFECTIVENESS; RANDALL R, 1973, ADMIN SCI QUART, V18, P236, DOI 10.2307/2392066; ROBERTS KH, 1974, HUM RELAT, V27, P501, DOI 10.1177/001872677402700507; ROSENBLOOM RS, 1970, TECHNOLOGY INFORMATI; SCHWARTZ DF, 1977, ORGAN BEHAV HUM PERF, V18, P158, DOI 10.1016/0030-5073(77)90026-5; Searle John R., 1969, SPEECH ACTS ESSAY PH; SMART C, 1977, ADMIN SCI QUART, V22, P640, DOI 10.2307/2392406; STEERS RM, 1975, ADMIN SCI QUART, V20, P546, DOI 10.2307/2392022; TAYLOR RL, 1975, IEEE T ENG MANAGE, VEM22, P80, DOI 10.1109/TEM.1975.6447208; Thompson J. P., 1967, ORG ACTION; TUSHMAN M, 1979, ADM SCI Q, V23, P82; TUSHMAN M, MANAGEMENT SCI; TUSHMAN ML, 1977, ADMIN SCI QUART, V22, P587, DOI 10.2307/2392402; TUSHMAN ML, 1978, ACAD MANAGE J, V21, P624, DOI 10.2307/255704; UTTERBACK JM, 1974, SCIENCE, V183, P620, DOI 10.1126/science.183.4125.620; UTTERBACK JM, 1971, ACAD MANAGE J, V14, P75, DOI 10.2307/254712; VANDEVEN AH, 1976, AM SOCIOL REV, V41, P322; Von Hippel E., 1976, RES POLICY, V5, P212, DOI DOI 10.1016/0048-7333(76)90028-7; WEICK KE, 1969, SOCIAL PSYCHOLOGY OR; WEISS R, 1960, SOCIOMETRY READER, P522; WHITLEY R, 1971, HUM RELAT, V24, P161, DOI 10.1177/001872677102400205; WHITLEY R, 1973, HUM RELAT, V25, P537; WRIGHT P, 1974, J APPL PSYCHOL, V59, P555, DOI 10.1037/h0037186	57	63	63	1	10	ACAD MANAGEMENT	ADA	PO BOX 39 300 SOUTH UNION STREET, ADA, OH 45810-0039	0001-4273			ACAD MANAGE J	Acad. Manage. J.		1979	22	3					482	500		10.2307/255739				19	Business; Management	Business & Economics	HJ678	WOS:A1979HJ67800003					2019-01-18	
J	ABBOTT, WF; MONSEN, RJ				ABBOTT, WF; MONSEN, RJ			MEASUREMENT OF CORPORATE SOCIAL-RESPONSIBILITY - SELF-REPORTED DISCLOSURES AS A METHOD OF MEASURING CORPORATE SOCIAL INVOLVEMENT	ACADEMY OF MANAGEMENT JOURNAL			English	Article									UNIV WASHINGTON,SEATTLE,WA 98195	ABBOTT, WF (reprint author), UNIV KENTUCKY,LEXINGTON,KY 40506, USA.						Beresford DR, 1975, SOCIAL RESPONSIBILIT; Beresford DR, 1976, MANAGEMENT ACCOUNTIN, V59, P51; Beresford DR, 1976, SOCIAL RESPONSIBILIT; BERESFORD DR, 1974, MANAGEMENT ACCOUNTIN, V56, P41; Beresford DR, 1973, COMPILATION SOCIAL M; BOWMAN EH, 1975, CALIF MANAGE REV, V18, P49, DOI 10.2307/41164638; BUNTING JR, 1971, VITAL SPEECHES DAY, V38, P51; DAVIS JA, 1977, NATIONAL DATA PROGRA; Friedman M, 1962, CAPITALISM FREEDOM; Friedman M, 1970, NY TIMES MAGAZI 0913, P32; HEINZE D. C., 1976, AKRON BUSINESS EC RE, V7, P48; HULL JW, 1971, VITAL SPEECHES DAY, V37, P367; MERTON R. K, 1968, SOCIAL THEORY SOCIAL; NARVER JC, 1971, ACAD MANAGE J, V14, P99, DOI 10.2307/254714; RAMANATHAN KV, 1976, ACCOUNT REV, V51, P516; Smith A., 1937, INQUIRY NATURE CAUSE; *US SEN, 1973, CONF CONC CIT VIEW A; Vance S., 1975, MANAGE REV, V64, P18; 1975, ACCOUNTING REV     S, V50, P50	19	323	327	7	71	ACAD MANAGEMENT	ADA	PO BOX 39 300 SOUTH UNION STREET, ADA, OH 45810-0039	0001-4273			ACAD MANAGE J	Acad. Manage. J.		1979	22	3					501	515		10.2307/255740				15	Business; Management	Business & Economics	HJ678	WOS:A1979HJ67800004					2019-01-18	
J	WOOD, DR; LAFORGE, RL				WOOD, DR; LAFORGE, RL			IMPACT OF COMPREHENSIVE PLANNING ON FINANCIAL PERFORMANCE	ACADEMY OF MANAGEMENT JOURNAL			English	Article									JAMES MADISON UNIV,HARRISONBURG,VA 22801	WOOD, DR (reprint author), VIRGINIA COMMONWEALTH UNIV,RICHMOND,VA 23284, USA.						Ansoff H. I., 1970, LONG RANGE PLANN, V3, P2; Fulmer R.M., 1974, MANAGERIAL PLANNING, V22, P1; FULMER RM, 1973, PRACTICE PROFITABILI; Guttman L, 1944, AM SOCIOL REV, V9, P139, DOI 10.2307/2086306; HEROLD DM, 1972, ACAD MANAGE J, V15, P91, DOI 10.2307/254803; MALIK Z, 1975, MANAGE REV, V64, P26; OPPENHEIM AN, 1966, QUESTIONNAIRE DESIGN, P143; STAGNER R, 1958, J APPLIED PSYCHOLOGY, V42, P292; THUNE SS, 1970, BUS HORIZONS, V13, P81, DOI 10.1016/0007-6813(70)90162-X	9	78	78	0	4	ACAD MANAGEMENT	ADA	PO BOX 39 300 SOUTH UNION STREET, ADA, OH 45810-0039	0001-4273			ACAD MANAGE J	Acad. Manage. J.		1979	22	3					516	526		10.2307/255741				11	Business; Management	Business & Economics	HJ678	WOS:A1979HJ67800005					2019-01-18	
J	ROBEY, D				ROBEY, D			USER ATTITUDES AND MANAGEMENT INFORMATION-SYSTEM USE	ACADEMY OF MANAGEMENT JOURNAL			English	Article										ROBEY, D (reprint author), FLORIDA INT UNIV,MIAMI,FL 33144, USA.						Ackoff R, 1967, MANAGE SCI, V14, pB147, DOI DOI 10.1287/MNSC.14.4.B147; ACKOFF RL, 1960, OPER RES, V8, P259, DOI 10.1287/opre.8.2.259; ANSHEN M, 1960, HARVARD BUS REV, V38, P85; CHURCHMAN CW, 1965, MANAGE SCI, V11, pB69; EASON KD, UNPUBLISHED; FRIEDLANDER F, 1965, PERS PSYCHOL, V18, P1, DOI 10.1111/j.1744-6570.1965.tb00262.x; GINZBERG MJ, N HOLLAND TIMS STUDI; HARDIN E, 1960, IND LABOR RELAT REV, V13, P559, DOI 10.2307/2520205; KEIM RT, 1976, THESIS U PITTSBURGH; LEAVITT HJ, 1958, HARVARD BUS REV, V36, P41; Lucas H. C.  Jr., 1978, Decision Sciences, V9, P68, DOI 10.1111/j.1540-5915.1978.tb01367.x; LUCAS HC, 1974, SLOAN MANAGE REV, V15, P59; LUCAS HC, 1974, MANAGE INFORM, V3, P207; LUCAS HC, 1975, WHY INFORMATION SYST; LUCAS HC, 1973, MANAGE INFORMATICS, V3, P165; LUCAS HC, 1976, IMPLEMENTATION COMPU; LUCAS HC, 1975, MANAGEMENT SCI, V20, P908; MASON RO, 1973, MANAGE SCI, V19, P475, DOI 10.1287/mnsc.19.5.475; MITCHELL TR, 1974, PSYCHOL BULL, V81, P1053, DOI 10.1037/h0037495; PIERCE JL, 1976, ACAD MANAGE REV, V1, P83, DOI DOI 10.5465/AMR.1976.4396611; Porter L.W., 1968, MANAGERIAL ATTITUDES; QUINN JB, 1963, HARVARD BUS REV, V41, P49; ROBEY D, 1978, INTERFACES, V8, P70, DOI 10.1287/inte.8.2.70; ROBEY D, 1978, HUM RELAT, V38, P689; RODRIGUEZ JI, 1977, THESIS U PITTSBURGH; SCHEWE CD, 1976, ACAD MANAGE J, V19, P577, DOI 10.2307/255792; SCHULTZ R. L, 1975, IMPLEMENTING OPERATI, P153; STILLSON P, 1963, OPER RES, V11, P140, DOI 10.1287/opre.11.1.140; VERTINSKY I, 1975, IMPLEMENTING OPERATI, P253; Whisler Thomas L., 1970, IMPACT COMPUTERS ORG; WYSOCKI RK, 1979, INTERFACES, V9, P37, DOI 10.1287/inte.9.2pt1.37; ZAND DE, 1975, ADM SCI Q, V30, P532	32	231	233	0	12	ACAD MANAGEMENT	ADA	PO BOX 39 300 SOUTH UNION STREET, ADA, OH 45810-0039	0001-4273			ACAD MANAGE J	Acad. Manage. J.		1979	22	3					527	538		10.2307/255742				12	Business; Management	Business & Economics	HJ678	WOS:A1979HJ67800006					2019-01-18	
J	GOULD, S				GOULD, S			CHARACTERISTICS OF CAREER PLANNERS IN UPWARDLY MOBILE OCCUPATIONS	ACADEMY OF MANAGEMENT JOURNAL			English	Article										GOULD, S (reprint author), UNIV TEXAS SAN ANTONIO, SAN ANTONIO, TX 78285 USA.						BARTLETT WE, 1968, VOCAT GUID QUART, V17, P104, DOI 10.1002/j.2164-585X.1968.tb01409.x; Baruch R, 1967, PERS ADMIN, V30, P26; Blau Peter M., 1967, AM OCCUPATIONAL STRU; BOLLES RN, 1972, WHAT COLOR YOUR PARA; CRITES JO, 1976, J VOCAT BEHAV, V9, P105, DOI 10.1016/0001-8791(76)90012-9; CRITES JO, 1971, 2 AM PERS GUID ASS M; DEAUX K, 1974, J PERS SOC PSYCHOL, V29, P80, DOI 10.1037/h0035733; GABLE RK, 1976, J VOCAT BEHAV, V8, P259, DOI 10.1016/0001-8791(76)90041-5; Hall D., 1976, CAREERS ORG; HALL DT, 1975, J APPL PSYCHOL, V60, P201, DOI 10.1037/h0076549; HALL DT, 1968, ORGAN BEHAV HUM PERF, V3, P12, DOI 10.1016/0030-5073(68)90024-X; HALL DT, 1977, ACAD MANAGE J, V20, P282, DOI 10.2307/255401; HALL DT, 1971, PERS ADMIN, V34, P18; Jennings E. E, 1971, ROUTES EXECUTIVE SUI; KORMAN AK, 1967, J APPL PSYCHOL, V51, P65, DOI 10.1037/h0024237; LEFCOURT HM, 1966, PSYCHOL BULL, V65, P206, DOI 10.1037/h0023116; LIBERTY PG, 1966, J PERS, V34, P105, DOI 10.1111/j.1467-6494.1966.tb01702.x; Nunnally JC, 1967, PSYCHOMETRIC THEORY; Rosenberg M., 1965, SOC ADOLESCENT SELF; ROTTER JB, 1966, PSYCHOLOGICAL MONOGR, V80; SCHEIN EH, 1968, IMR-IND MANAG REV, V9, P1; SLOCUM WL, 1974, OCCUPATIONAL CAREERS; SUPER DE, 1978, ANNU REV PSYCHOL, V29, P333, DOI 10.1146/annurev.ps.29.020178.002001; SUPER DE, 1957, PSYCHOLOGY CAREERS; Van Maanen J, 1977, ORG CAREERS SOME NEW, P15; VEIGA JF, 1976, HUMAN RESOURCES MANA, V15, P24; WALKER JW, 1978, HUMAN RESOURCES MANA, V17, P2	27	122	124	3	14	ACAD MANAGEMENT	BRIARCLIFF MANOR	PACE UNIV, PO BOX 3020, 235 ELM RD, BRIARCLIFF MANOR, NY 10510-8020 USA	0001-4273	1948-0989		ACAD MANAGE J	Acad. Manage. J.		1979	22	3					539	550		10.2307/255743				12	Business; Management	Business & Economics	HJ678	WOS:A1979HJ67800007					2019-01-18	
J	HOM, PW				HOM, PW			EFFECTS OF JOB PERIPHERALITY AND PERSONAL CHARACTERISTICS ON THE JOB-SATISFACTION OF PART TIME WORKERS	ACADEMY OF MANAGEMENT JOURNAL			English	Article										HOM, PW (reprint author), KENT STATE UNIV,KENT,OH 44242, USA.		Hom, Peter/B-9498-2013	Hom, Peter/0000-0001-8296-4652			BERNARZIK R, 1975, MONTHLY LABOR REV, V98, P12; COOLEY WW, 1971, MULTIVARIATE PROCEDU; DUNHAM RB, 1977, ACAD MANAGE J, V20, P420, DOI 10.2307/255415; Evans Archibald A., 1975, HOURS WORK IND COUNT; GANNON MJ, 1971, PERS PSYCHOL, V24, P687, DOI 10.1111/j.1744-6570.1971.tb00382.x; GANNON MJ, 1971, ACAD MANAGE J, V14, P142, DOI 10.2307/254718; GANNON MJ, 1975, PERS J, V54, P482; GILROY CL, 1974, MON LABOR REV, V97, P3; GLEASON TC, 1976, PSYCHOL BULL, V83, P1004, DOI 10.1037//0033-2909.83.6.1004; HALL DT, 1973, J APPL PSYCHOL, V58, P42, DOI 10.1037/h0035404; HALLAIRE J, 1968, PART TIME EMPLOYMENT; HARMAN HH, 1976, MODERN FACTOR ANAL, P44103; HERMAN JB, 1972, ORGAN BEHAV HUM PERF, V8, P84, DOI 10.1016/0030-5073(72)90038-4; HERMAN JB, 1975, ORGAN BEHAV HUM PERF, V13, P206, DOI 10.1016/0030-5073(75)90046-X; Herzberg F., 1957, JOB ATTITUDES REV RE; KLEIN D, 1973, MONTHLY LABOR REV, V96, P3; LOGAN N, 1973, J VOCAT BEHAV, V3, P33, DOI 10.1016/0001-8791(73)90042-0; MEREDITH W, 1964, PSYCHOMETRIKA, V29, P55, DOI 10.1007/BF02289567; Morse D., 1969, PERIPHERAL WORKER; PORTER LW, 1973, PSYCHOL BULL, V80, P151, DOI 10.1037/h0034829; SCHUH AJ, 1967, PERS PSYCHOL, V20, P133, DOI 10.1111/j.1744-6570.1967.tb02275.x; STEWART D, 1968, PSYCHOL BULL, V70, P160, DOI 10.1037/h0026143; TATSUOKA MM, 1971, MULTIVARIATE ANAL; Tatsuoka MM, 1970, DISCRIMINANT ANAL ST; THORNDIKE RM, 1973, EDUC PSYCHOL MEAS, V33, P123, DOI 10.1177/001316447303300113; WERTHER WB, 1975, BUS HORIZONS, V18, P13, DOI 10.1016/0007-6813(75)90003-8; YOUNG AM, 1976, MON LABOR REV, V99, P47; YOUNG AM, 1975, MON LABOR REV, V98, P47; YOUNG AM, 1974, MON LABOR REV, V97, P48; YOUNG AM, 1977, MON LABOR REV, V100, P43	30	37	37	0	8	ACAD MANAGEMENT	ADA	PO BOX 39 300 SOUTH UNION STREET, ADA, OH 45810-0039	0001-4273			ACAD MANAGE J	Acad. Manage. J.		1979	22	3					551	565		10.2307/255744				15	Business; Management	Business & Economics	HJ678	WOS:A1979HJ67800008					2019-01-18	
J	NEMEROFF, WF; COSENTINO, J				NEMEROFF, WF; COSENTINO, J			UTILIZING FEEDBACK AND GOAL SETTING TO INCREASE PERFORMANCE-APPRAISAL INTERVIEWER SKILLS OF MANAGERS	ACADEMY OF MANAGEMENT JOURNAL			English	Article										NEMEROFF, WF (reprint author), SUNY ALBANY,ALBANY,NY 12222, USA.						AMMONS RB, 1956, J GEN PSYCHOL, V54, P279, DOI 10.1080/00221309.1956.9920284; BINGHAM WV, 1932, PSYCHOLOGY TODAY; CARROLL SJ, 1973, MANAGEMENT OBJECTIVE; CRONBACH LJ, 1970, PSYCHOL BULL, V74, P68, DOI 10.1037/h0029382; CUMMINGS LL, 1976, 84TH ANN CONV AM PSY; EREZ M, 1977, J APPL PSYCHOL, V62, P624, DOI 10.1037/0021-9010.62.5.624; FLANAGAN JC, 1954, PSYCHOL BULL, V51, P327, DOI 10.1037/h0061470; GRELLER MM, 1975, ORGAN BEHAV HUM PERF, V13, P244, DOI 10.1016/0030-5073(75)90048-3; HACKMAN JR, 1971, J APPL PSYCHOL, V55, P259, DOI 10.1037/h0031152; HEROLD DM, 1977, ACAD MANAGE J, V20, P142, DOI 10.2307/255468; HILLERY JM, 1974, J APPL PSYCHOL, V59, P168, DOI 10.1037/h0036522; IVANCEVICH JM, 1977, ACAD MANAGE J, V20, P406, DOI 10.2307/255414; IVANCEVICH JM, 1976, J APPL PSYCHOL, V61, P605, DOI 10.1037/0021-9010.61.5.605; KIM JS, 1976, J APPL PSYCHOL, V61, P48, DOI 10.1037/0021-9010.61.1.48; LATHAM GP, 1975, ACAD MANAGE J, V18, P824, DOI 10.2307/255381; LATHAM GP, 1975, J APPL PSYCHOL, V60, P122, DOI 10.1037/h0076354; LATHAM GP, 1975, J APPL PSYCHOL, V60, P299, DOI 10.1037/h0076753; LATHAM GP, 1974, J APPL PSYCHOL, V59, P187, DOI 10.1037/h0036530; LATHAM GP, 1978, J APPL PSYCHOL, V63, P163, DOI 10.1037//0021-9010.63.2.163; LOCKE EA, 1969, J APPL PSYCHOL, V53, P59, DOI 10.1037/h0026736; LOCKE EA, 1968, ORGAN BEHAV HUM PERF, V3, P157, DOI 10.1016/0030-5073(68)90004-4; LOCKE EA, 1968, PSYCHOL BULL, V70, P474, DOI 10.1037/h0026737; MAIER NRF, 1958, APPRAISAL INTERVIEW; MCCALL MW, 1975, 35TH ANN M AC MAN NE; MCGREGOR D, 1957, HARVARD BUS REV, V35, P89; NADLER D, 1976, ORGAN DYN, V4, P63, DOI 10.1016/0090-2616(76)90045-0; OBERG W, 1972, HARVARD BUS REV, V50, P61; PYM D, 1973, OCCUP PSYCHOL, V47, P231; RONAN WW, 1973, J APPL PSYCHOL, V58, P302, DOI 10.1037/h0036303; THOMPSON PH, 1970, HARVARD BUS REV, V48, P149; WEXLEY KN, 1975, J APPL PSYCHOL, V60, P446, DOI 10.1037/h0076912	31	42	42	3	10	ACAD MANAGEMENT	ADA	PO BOX 39 300 SOUTH UNION STREET, ADA, OH 45810-0039	0001-4273			ACAD MANAGE J	Acad. Manage. J.		1979	22	3					566	576		10.2307/255745				11	Business; Management	Business & Economics	HJ678	WOS:A1979HJ67800009					2019-01-18	
J	FOSSUM, JA				FOSSUM, JA			EFFECTS OF POSITIVELY AND NEGATIVELY CONTINGENT REWARDS AND INDIVIDUAL-DIFFERENCES ON PERFORMANCE, SATISFACTION, AND EXPECTATIONS	ACADEMY OF MANAGEMENT JOURNAL			English	Article										FOSSUM, JA (reprint author), UNIV MICHIGAN,ANN ARBOR,MI 48109, USA.						ADAMS JS, 1965, ADV EXP SOC PSYCHOL, V2, P267; CHERRINGTON DJ, 1971, J APPL PSYCHOL, V55, P531, DOI 10.1037/h0032041; CHERRINGTON DJ, 1973, ORGAN BEHAV HUM PERF, V10, P271, DOI 10.1016/0030-5073(73)90018-4; Cohen J., 1975, APPLIED MULTIPLE REG; GRAEN G, 1969, J APPL PSYCHOL, V53, P1, DOI 10.1037/h0027100; GREENE CN, 1973, J APPL PSYCHOL, V58, P95, DOI 10.1037/h0035417; KESSELMAN GA, 1974, J APPL PSYCHOL, V59, P374, DOI 10.1037/h0036773; MAWHINNEY TC, 1975, J APPL PSYCHOL, V60, P704; ORPEN C, 1974, PSYCHOLOGY, V11, P9; SCOTT WE, 1974, J PERS SOC PSYCHOL, V30, P748, DOI 10.1037/h0037534; TORNOW WW, 1971, ORGAN BEHAV HUM PERF, V6, P614, DOI 10.1016/S0030-5073(71)80010-7; TYLER LE, 1965, PSYCHOLOGY HUMAN DIF; WOLF G, 1974, PSYCHOL BULL, V81, P173, DOI 10.1037/h0035848	13	5	5	0	3	ACAD MANAGEMENT	ADA	PO BOX 39 300 SOUTH UNION STREET, ADA, OH 45810-0039	0001-4273			ACAD MANAGE J	Acad. Manage. J.		1979	22	3					577	589		10.2307/255746				13	Business; Management	Business & Economics	HJ678	WOS:A1979HJ67800010					2019-01-18	
J	VECCHIO, RP				VECCHIO, RP			DYADIC INTERPRETATION OF THE CONTINGENCY-MODEL OF LEADERSHIP EFFECTIVENESS	ACADEMY OF MANAGEMENT JOURNAL			English	Article										VECCHIO, RP (reprint author), UNIV NOTRE DAME,NOTRE DAME,IN 46556, USA.						BATES PA, 1967, THESIS U ILLINOIS; BEACH BH, 1978, ORGAN BEHAV HUM PERF, V22, P69, DOI 10.1016/0030-5073(78)90005-3; DANSEREAU F, 1975, ORGAN BEHAV HUM PERF, V13, P46, DOI 10.1016/0030-5073(75)90005-7; DANSEREAU F, 1973, ORGAN BEHAV HUM PERF, V10, P184, DOI 10.1016/0030-5073(73)90012-3; Fiedler F. E., 1967, THEORY LEADERSHIP EF; FIEDLER FE, 1971, PSYCHOL BULL, V76, P128, DOI 10.1037/h0031454; FIEDLER FE, 1967, Z EXP ANGEW PSYCHOL, V14, P200; GRAEN G, 1976, HDB IND ORG PSYCHOLO; HALL J, 1971, PSYCHOL TODAY, V5, P51; HILL W, 1969, ACAD MANAGE J, V12, P33, DOI 10.2307/254670; HUNT JG, 1967, ORGAN BEHAV HUM PERF, V2, P290, DOI 10.1016/0030-5073(67)90023-2; Jacobs T. O., 1970, LEADERSHIP EXCHANGE; KORMAN AK, 1973, J APPL PSYCHOL, V58, P384, DOI 10.1037/h0036306; MCNAMARA VD, 1967, THESIS U ALBERTA; POSTHUMA AB, 1970, 708 U WASH ADV RES P; SHAW ME, 1963, 1 U FLOR TECH REP; VECCHIO RP, 1977, ORGAN BEHAV HUM PERF, V19, P180, DOI 10.1016/0030-5073(77)90061-7; YNTEMA DB, 1961, IRE T HUM FACT ELECT, VHFE2, P20, DOI 10.1109/THFE2.1961.4503294	18	2	2	0	2	ACAD MANAGEMENT	ADA	PO BOX 39 300 SOUTH UNION STREET, ADA, OH 45810-0039	0001-4273			ACAD MANAGE J	Acad. Manage. J.		1979	22	3					590	600		10.2307/255747				11	Business; Management	Business & Economics	HJ678	WOS:A1979HJ67800011					2019-01-18	
J	FORD, JD				FORD, JD			INSTITUTIONAL VERSUS QUESTIONNAIRE MEASURES OF ORGANIZATIONAL-STRUCTURE - RE-EXAMINATION	ACADEMY OF MANAGEMENT JOURNAL			English	Article										FORD, JD (reprint author), INDIANA UNIV,INDIANAPOLIS,IN 46204, USA.						BLAU PM, 1970, AM SOCIOL REV, V35, P201, DOI 10.2307/2093199; CHILD J, 1972, ADMIN SCI QUART, V17, P163, DOI 10.2307/2393951; DONALDSON L, 1975, ADMIN SCI QUART, V20, P453, DOI 10.2307/2392003; DUNCAN RB, 1972, ADMIN SCI QUART, V17, P313, DOI 10.2307/2392145; DUNCAN RB, 1971, THESIS YALE U; FIREBAUGH G, 1978, AM SOCIOL REV, V43, P557, DOI 10.2307/2094779; Ford J. D., 1977, ACAD MANAGE REV, V2, P561; FORD JD, 1977, P MIDWEST ACADEMY MA, P76; Hall R. H., 1972, ORG STRUCTURE PROCES; INKSON JHK, 1970, ADMIN SCI QUART, V15, P318, DOI 10.2307/2391622; LAZARSFELD PF, 1961, COMPLEX ORG SOCIOLOG, P422; MANNING PK, 1977, SOCIOL QUART, V18, P44, DOI 10.1111/j.1533-8525.1977.tb02161.x; OSBORN RN, 1975, ORG ADM SCI, V6, P27; OUCHI WG, 1975, ADMIN SCI QUART, V20, P559, DOI 10.2307/2392023; PENNINGS J, 1973, AM J SOCIOL, V79, P686, DOI 10.1086/225590; SAMUEL Y, 1970, ADMIN SCI QUART, V15, P216, DOI 10.2307/2391492; SATHE V, 1978, ACAD MANAGE J, V21, P227, DOI 10.2307/255756; SATHE V, 1974, THESIS OHIO STATE U	18	18	19	1	7	ACAD MANAGEMENT	ADA	PO BOX 39 300 SOUTH UNION STREET, ADA, OH 45810-0039	0001-4273			ACAD MANAGE J	Acad. Manage. J.		1979	22	3					601	610		10.2307/255748				10	Business; Management	Business & Economics	HJ678	WOS:A1979HJ67800012					2019-01-18	
J	LONG, RJ				LONG, RJ			DESIRES FOR AND PATTERNS OF WORKER PARTICIPATION IN DECISION-MAKING AFTER CONVERSION TO EMPLOYEE OWNERSHIP	ACADEMY OF MANAGEMENT JOURNAL			English	Article										LONG, RJ (reprint author), UNIV SASKATCHEWAN, SASKATOON S7N 0W0, SASKATCHEWAN, CANADA.						Derrick P., 1969, COOWNERSHIP COOPERAT; FRENCH JRP, 1960, HUM RELAT, V13, P3, DOI 10.1177/001872676001300101; HESPE G, 1976, HUM RELAT, V29, P411, DOI 10.1177/001872677602900503; LONG RJ, 1978, HUM RELAT, V31, P753, DOI 10.1177/001872677803100901; LONG RJ, 1978, HUM RELAT, V31, P29, DOI 10.1177/001872677803100102; LONG RJ, 1977, THESIS CORNELL U; MULDER M, 1971, ADMIN SCI QUART, V16, P31, DOI 10.2307/2391284; Poole Michael, 1975, WORKERS PARTICIPATIO; VANEK J., 1975, SELF MANAGEMENT EC L	9	26	26	0	11	ACAD MANAGEMENT	BRIARCLIFF MANOR	PACE UNIV, PO BOX 3020, 235 ELM RD, BRIARCLIFF MANOR, NY 10510-8020 USA	0001-4273			ACAD MANAGE J	Acad. Manage. J.		1979	22	3					611	617		10.2307/255749				7	Business; Management	Business & Economics	HJ678	WOS:A1979HJ67800013					2019-01-18	
J	CHERRINGTON, DJ; CONDIE, SJ; ENGLAND, JL				CHERRINGTON, DJ; CONDIE, SJ; ENGLAND, JL			AGE AND WORK VALUES	ACADEMY OF MANAGEMENT JOURNAL			English	Article										CHERRINGTON, DJ (reprint author), BRIGHAM YOUNG UNIV,PROVO,UT 84602, USA.						ALDAG RJ, 1975, J APPL PSYCHOL, V60, P757, DOI 10.1037/0021-9010.60.6.757; BLOOD MR, 1969, J APPL PSYCHOL, V53, P456, DOI 10.1037/h0028653; CHERRINGTON D, 1977, BUS HORIZONS, V20, P18, DOI 10.1016/0007-6813(77)90021-0; DUNCAN OD, 1961, OCCUPATIONS SOCIAL S, P109; GOODWIN L, 1972, DO POOR WANT WORK; HAITOVSKY Y, 1969, REV ECON STAT, V51, P486, DOI 10.2307/1926450; HARMON HH, 1967, MODERN FACTOR ANAL; HEISE D, 1969, SOC METHODOLOGY, P109; SUSMAN GI, 1973, IND RELAT, V12, P1, DOI 10.1111/j.1468-232X.1973.tb00530.x; TAYLOR RN, 1976, ACAD MANAGE J, V19, P522, DOI 10.2307/255788; WOLLACK S, 1971, J APPL PSYCHOL, V55, P331, DOI 10.1037/h0031531	11	58	58	0	14	ACAD MANAGEMENT	ADA	PO BOX 39 300 SOUTH UNION STREET, ADA, OH 45810-0039	0001-4273			ACAD MANAGE J	Acad. Manage. J.		1979	22	3					617	623		10.2307/255750				7	Business; Management	Business & Economics	HJ678	WOS:A1979HJ67800014					2019-01-18	
J	ALLEN, SA				ALLEN, SA			UNDERSTANDING REORGANIZATIONS OF DIVISIONALIZED COMPANIES	ACADEMY OF MANAGEMENT JOURNAL			English	Article										ALLEN, SA (reprint author), BABSON COLL,WELLESLEY,MA, USA.						ALLEN SA, 1978, ACAD MANAGE J, V21, P341, DOI 10.2307/255719; ALLEN SA, 1978, NOTES MEASUREMENT TO; ALLEN SA, 1976, TAXONOMY ORG CHOICES; ALLEN SA, 1978, NOTES MEASUREMENT CO; ANSOFF HI, 1971, MANAGE SCI B-APPL, V17, pB705; Argyris C., 1976, INCREASING LEADERSHI; ARGYRIS C, 1972, APPLICABILITY ORG SO; BARNARD C., 1938, FUNCTIONS EXECUTIVE; Benson J. K., 1978, ORG ENV, P69; BLALOCK HM, 1972, SOCIAL STATISTICS; Chandler A. D., 1962, STRATEGY STRUCTURE; CHILD J, 1972, SOCIOLOGY, V6, P1, DOI 10.1177/003803857200600101; CHILD J, 1973, ADMIN SCI QUART, V18, P168, DOI 10.2307/2392061; Child J., 1977, ORG ADM SCI, V8, P169; CYERT RM, 1963, BEHAVIORAL THEORY FI; DALE E, 1960, GREAT ORG; DOWNEY HK, 1975, ADMIN SCI QUART, V20, P613, DOI 10.2307/2392027; Drucker P. E., 1974, MANAGEMENT TASKS RES; DUNCAN RB, 1972, ADMIN SCI QUART, V17, P313, DOI 10.2307/2392145; EMERY FE, 1965, HUM RELAT, V18, P21, DOI 10.1177/001872676501800103; FORRESTER JW, 1971, TECHNOLOGY REV, V73, P1; GALBRAITH JR, 1973, DESIGNING COMPLEX OR; GERSTNER LV, 1976, HARVARD BUS REV, V54, P100; GREINER LE, 1972, HARVARD BUS REV, V50, P37; HAGE J, 1973, ADMIN SCI QUART, V18, P279, DOI 10.2307/2391664; HAGE J, 1978, ORG ENV THEORY ISSUE, P103; Helmich D., 1977, ACAD MANAGE REV, V2, P252; Khandwalla P., 1977, DESIGN ORG; KHANDWALLA PN, 1973, ACAD MANAGE J, V16, P481, DOI 10.2307/255008; KILMANN RH, 1976, MANAGEMENT ORG DESIG, V2, P1; Kotter JP, 1978, ORG DYNAMICS DIAGNOS; Lawrence P. R., 1967, ORG ENV; Lewin K., 1951, FIELD THEORY SOCIAL; LORSCH JW, 1973, MANAGING DIVERSITY I; MCKELVEY B, MANAGEMENT SCI; Normann R., 1977, MANAGEMENT GROWTH; PENNINGS J M, 1978, ORG ENV THEORY ISSUE, P171; PENNINGS JM, 1975, ADMIN SCI QUART, V20, P393, DOI 10.2307/2391999; Pfeffer J., 1978, EXTERNAL CONTROL ORG; Pfeffer J., 1978, ORG DESIGN; PUGH DS, 1969, ADMIN SCI QUART, V14, P91, DOI 10.2307/2391366; Rumelt R. P., 1974, STRATEGY STRUCTURE E; SCOTT BR, 1973, HARVARD BUS REV, V51, P133; Selznick P, 1957, LEADERSHIP ADM; SLOAN AP, 1963, MY YEARS GENERAL MOT; Stopford John M., 1972, MANAGING MULTINATION; TERREBERRY S, 1968, ADMIN SCI QUART, V12, P590, DOI 10.2307/2391535; Thompson J. P., 1967, ORG ACTION; TOSI H, 1973, ADMIN SCI QUART, V18, P27, DOI 10.2307/2391925; Vancil R. F., 1978, DECENTRALIZATION MAN; VANCIL RF, 1971, 4TH ANN WORKSH PLANN; WARD JH, 1963, J AM STAT ASSOC, V58, P236, DOI 10.2307/2282967; Weick K., 1977, ORGAN DYN, P31; WEICK KE, 1969, SOCIAL PSYCHOLOGY OR; Wrigley L, 1970, THESIS HARVARD BUSIN; 1977, BUSINESS WEEK   0815	56	10	10	0	6	ACAD MANAGEMENT	ADA	PO BOX 39 300 SOUTH UNION STREET, ADA, OH 45810-0039	0001-4273			ACAD MANAGE J	Acad. Manage. J.		1979	22	4					641	671		10.2307/255807				31	Business; Management	Business & Economics	HW808	WOS:A1979HW80800001					2019-01-18	
J	TUNG, RL				TUNG, RL			DIMENSIONS OF ORGANIZATIONAL ENVIRONMENTS - EXPLORATORY-STUDY OF THEIR IMPACT ON ORGANIZATION STRUCTURE	ACADEMY OF MANAGEMENT JOURNAL			English	Article										TUNG, RL (reprint author), UNIV OREGON,GRAD SCH MANAGEMENT,EUGENE,OR 97403, USA.						ANDERSON CR, 1975, ACAD MANAGE J, V18, P811, DOI 10.2307/255380; Burns T, 1961, MANAGEMENT INNOVATIO; CHILD J, 1972, SOCIOLOGY, V6, P1, DOI 10.1177/003803857200600101; CRONBACH LJ, 1951, PSYCHOMETRIKA, V16, P297; DOWNEY HK, 1975, ACAD MANAGE J, V18, P562, DOI 10.2307/255685; DUNCAN R, 1970, THESIS YALE U; DUNCAN RB, 1972, ADMIN SCI QUART, V17, P313, DOI 10.2307/2392145; EMERY FE, 1965, HUM RELAT, V18, P21, DOI 10.1177/001872676501800103; HAAS JE, 1973, COMPLEX ORG SOC PERS; HAGE J, 1967, ADMIN SCI QUART, V12, P72, DOI 10.2307/2391213; Hall R. H., 1972, ORG STRUCTURE PROCES; INKSON JHK, 1970, ADMIN SCI QUART, V15, P318, DOI 10.2307/2391622; JURKOVICH R, 1974, ADMIN SCI QUART, V19, P380, DOI 10.2307/2391979; LAPORTE TR, 1971, 141 U CAL WORK PAP; Lawrence P. R., 1967, ORG ENV MANAGING DIF; MILES RE, 1974, IND RELAT, V13, P244, DOI 10.1111/j.1468-232X.1974.tb00581.x; OSBORN RN, 1974, ADMIN SCI QUART, V19, P231, DOI 10.2307/2393892; PERROW C, 1970, ORG ANAL SOC VIEW; PUGH DS, 1969, ADMIN SCI QUART, V14, P91, DOI 10.2307/2391366; Simon H., 1960, NEW SCI MANAGEMENT D; Steers R. M., 1977, ORG EFFECTIVENESS BE; Taylor J. C., 1972, SURVEY ORG MACHINE S; Thompson J. P., 1967, ORG ACTION; VANDEVEN AH, 1976, ACAD MANAGE REV, V1, P64, DOI DOI 10.5465/AMR.1976.4408765; WEICK KE, 1969, SOCIAL PSYCHOLOGY OR; Woodward J., 1965, IND ORG THEORY PRACT	26	135	141	1	13	ACAD MANAGEMENT	ADA	PO BOX 39 300 SOUTH UNION STREET, ADA, OH 45810-0039	0001-4273			ACAD MANAGE J	Acad. Manage. J.		1979	22	4					672	693		10.2307/255808				22	Business; Management	Business & Economics	HW808	WOS:A1979HW80800002					2019-01-18	
J	ALLEN, TJ; TUSHMAN, ML; LEE, DMS				ALLEN, TJ; TUSHMAN, ML; LEE, DMS			TECHNOLOGY-TRANSFER AS A FUNCTION OF POSITION IN THE SPECTRUM FROM RESEARCH THROUGH DEVELOPMENT TO TECHNICAL-SERVICES	ACADEMY OF MANAGEMENT JOURNAL			English	Article									COLUMBIA UNIV,GRAD SCH BUSINESS,NEW YORK,NY 10027; NORTHEASTERN UNIV,BOSTON,MA 02115	ALLEN, TJ (reprint author), MIT,CAMBRIDGE,MA 02139, USA.						Allen T. J., 1977, MANAGING FLOW TECHNO; ALLEN TJ, 1969, ADMIN SCI QUART, V14, P12, DOI 10.2307/2391357; ALLEN TJ, 1974, R D MANAGEMENT, V4, P41; ALLEN TJ, 1969, REV INFORMATION SCI, P1; ALLEN TJ, 1964, USE INFORMATION CHAN; BAKER NR, 1967, IEEE T ENG MANAGE, VEM14, P156; Baldrige V. J., 1975, ADM SCI Q, V20, P165; Burns T., 1969, FACTORS TRANSFER TEC; Burns T., 1966, MANAGEMENT INNOVATIO; CARLSON RC, 1964, ADOPTION ED INNOVATI; COLEMAN J, 1966, DIFFUSION INNOVATION; CRANE D, 1972, INVISIBLE COLLEGES; FARRIS G, 1972, R&D MANAGE, V3, P23, DOI DOI 10.1111/J.1467-9310.1972.TB00992.X; FROST R, 1971, R&D MANAGE, V1, P71; Hagstrom W.D., 1965, SCI COMMUNITY; KATZ D, 1955, PERSONAL INFLUENCE; KATZ R, 1979, ORGAN BEHAV HUM PERF, V23, P139, DOI 10.1016/0030-5073(79)90053-9; Kuhn T, 1962, STRUCTURE SCI REVOLU; MANSFIELD E, 1975, J BUS, V48, P179, DOI 10.1086/295734; MENZEL H, 1966, ANNU REV INFORM SCI, V1, P41; Myers S., 1969, SUCCESSFUL IND INNOV; Parker E, 1968, COMMUNICATION RES PR; Pelz D. C., 1966, SCI ORG; Pettigrew A.M., 1973, POLITICS ORG DECISIO; PRICE DJD, 1965, TECHNOL CULT, V6, P553; ROSENBLOOM RS, 1970, TECHNOLOGY INFORMATI; SCHWARTZ DF, 1977, ORGAN BEHAV HUM PERF, V18, P158, DOI 10.1016/0030-5073(77)90026-5; SHILLING CW, 1964, 16A64 G WASH U BIOL; SPITAL F, 1977, 90277 SLOAN SCH MAN; TAYLOR RL, 1975, IEEE T ENG MANAGE, VEM22, P80, DOI 10.1109/TEM.1975.6447208; TUSHMAN M, UNPUBLISHED; TUSHMAN ML, 1978, ACAD MANAGE J, V21, P624, DOI 10.2307/255704; TUSHMAN ML, 1977, ADM SCI Q, V22, P581; Walsh V. M., 1972, R & D Management, V2, P103, DOI 10.1111/j.1467-9310.1972.tb00975.x; WEISS R, 1960, SOCIOMETRY READER, P522; WHITLEY R, 1973, HUM RELAT, V25, P537	36	103	104	0	15	ACAD MANAGEMENT	ADA	PO BOX 39 300 SOUTH UNION STREET, ADA, OH 45810-0039	0001-4273			ACAD MANAGE J	Acad. Manage. J.		1979	22	4					694	708		10.2307/255809				15	Business; Management	Business & Economics	HW808	WOS:A1979HW80800003					2019-01-18	
J	MOWDAY, RT				MOWDAY, RT			LEADER CHARACTERISTICS, SELF-CONFIDENCE, AND METHODS OF UPWARD INFLUENCE IN ORGANIZATIONAL DECISION SITUATIONS	ACADEMY OF MANAGEMENT JOURNAL			English	Article										MOWDAY, RT (reprint author), UNIV OREGON,GRAD SCH MANAGEMENT,EUGENE,OR 97403, USA.						Cartwright D., 1965, HDB ORG, P1; DAHL RA, 1957, BEHAV SCI, V2, P201, DOI 10.1002/bs.3830020303; FALBO T, 1977, J PERS SOC PSYCHOL, V35, P537, DOI 10.1037//0022-3514.35.8.537; FRENCH JRP, 1959, STUD SOC POWER, P150, DOI DOI 10.1016/S0883-9026(03)00011-9; Gamson W. A., 1968, POWER DISCONTENT; GOODSTAD.B, 1970, J APPL PSYCHOL, V54, P201, DOI 10.1037/h0029265; GOODSTADT BE, 1973, J PERS SOC PSYCHOL, V27, P190, DOI 10.1037/h0034784; HICKSON DJ, 1971, ADMIN SCI QUART, V16, P216, DOI 10.2307/2391831; HININGS CR, 1974, ADMIN SCI QUART, V19, P22, DOI 10.2307/2391786; JAFFEE CL, 1968, PSYCHOL REP, V23, P939, DOI 10.2466/pr0.1968.23.3.939; Kanter R.M., 1977, MEN WOMEN CORPORATIO; KIPNIS D, 1969, J APPL PSYCHOL, V53, P460, DOI 10.1037/h0028668; KIPNIS D, 1962, J APPL PSYCHOL, V46, P291, DOI 10.1037/h0044720; Kipnis D., 1976, THE POWERHOLDERS; Lawler E. E., 1973, MOTIVATION WORK ORG; LAWLER EJ, 1976, J PERS SOC PSYCHOL, V34, P885; MICHENER HA, 1975, J PERS SOC PSYCHOL, V32, P398, DOI 10.1037/h0077079; MOWDAY RT, 1978, ADMIN SCI QUART, V23, P137, DOI 10.2307/2392437; MOWDAY RT, 1975, THESIS U CALIFORNIA; PATCHEN M, 1974, ORGAN BEHAV HUM PERF, V11, P195, DOI 10.1016/0030-5073(74)90014-2; Pettigrew A.M., 1973, POLITICS ORG DECISIO; Pfeffer J., 1977, NEW DIRECTIONS ORG B, P235; POLLARD WE, 1972, PSYCHOL BULL, V78, P433, DOI 10.1037/h0033727; PORTER LW, 1976, 84TH ANN M AM PSYCH; Raven B.H., 1970, STRUCTURE CONFLICT, V34, P69; ROSENBERG M, 1962, HUM RELAT, V15, P335, DOI 10.1177/001872676201500403; SALANCIK GR, 1974, ADMIN SCI QUART, V19, P453, DOI 10.2307/2391803; SALANCIK GR, 1977, ORGAN DYN, V5, P3, DOI 10.1016/0090-2616(77)90028-6; SCHEIN VE, 1977, ACAD MANAGE REV, V2, P64; SCHMIDT S, 1976, NOV ANN M AM I DEC S; STEERS RM, 1976, J VOCAT BEHAV, V9, P251, DOI 10.1016/0001-8791(76)90083-X; Tedeschi J.T, 1972, SOCIAL INFLUENCE PRO, P287; WEINER B, 1974, ACHIEVEMENT MOTIVATI, P3; WILKINSON I, 1978, J APPL PSYCHOL, V63, P315, DOI 10.1037//0021-9010.63.3.315	34	42	42	0	9	ACAD MANAGEMENT	ADA	PO BOX 39 300 SOUTH UNION STREET, ADA, OH 45810-0039	0001-4273			ACAD MANAGE J	Acad. Manage. J.		1979	22	4					709	725		10.2307/255810				17	Business; Management	Business & Economics	HW808	WOS:A1979HW80800004					2019-01-18	
J	MAHONEY, TA				MAHONEY, TA			ORGANIZATIONAL HIERARCHY AND POSITION WORTH	ACADEMY OF MANAGEMENT JOURNAL			English	Article										MAHONEY, TA (reprint author), UNIV MINNESOTA,GRAD SCH BUSINESS ADM,MINNEAPOLIS,MN 55455, USA.						CHAMPLIN F, UNPUBLISHED; FOX H, 1974, TOP EXECUTIVE COMPEN; HINRICHS JR, 1969, J APPL PSYCHOL, V53, P481, DOI 10.1037/h0028655; Jaques E., 1965, GLACIER PROJECT PAPE; KUETHE JL, 1964, AM J SOCIOL, V70, P342, DOI 10.1086/223844; LINDBERG C, UNPUBLISHED; MAHONEY TA, 1978, IND RELAT, V17, P245, DOI 10.1111/j.1468-232X.1978.tb00134.x; Patton A, 1951, HARVARD BUS REV, V29, P56; SIMON HA, 1957, SOCIOMETRY, V20, P32, DOI 10.2307/2786111; Torgerson W.S, 1958, THEORY METHODS SCALI	10	31	31	0	8	ACAD MANAGEMENT	ADA	PO BOX 39 300 SOUTH UNION STREET, ADA, OH 45810-0039	0001-4273			ACAD MANAGE J	Acad. Manage. J.		1979	22	4					726	737		10.2307/255811				12	Business; Management	Business & Economics	HW808	WOS:A1979HW80800005					2019-01-18	
J	GRUNIG, JE				GRUNIG, JE			NEW MEASURE OF PUBLIC OPINIONS ON CORPORATE SOCIAL-RESPONSIBILITY	ACADEMY OF MANAGEMENT JOURNAL			English	Article										GRUNIG, JE (reprint author), UNIV MARYLAND,COLL JOURNALISM,COLLEGE PK,MD 20742, USA.						ABT CC, 1974, MANAGING SOCIALLY RE, P92; Anshen M, 1974, MANAGING SOCIALLY RE, P1; Bauer Raymond A., 1972, CORPORATE SOCIAL AUD; Blumer H., 1946, READER PUBLIC OPINIO, P43; Blumer H, 1948, AM SOCIOL REV, V13, P542, DOI 10.2307/2087146; BURSON H, 1974, MANAGING SOCIALLY RE, P222; Committee for Economic Development, 1971, SOC RESP BUS CORP; Davis K., 1975, BUSINESS SOC ENV RES; Dewey J, 1938, LOGIC THEORY INQUIRY; Dewey J, 1922, HUMAN NATURE CONDUCT; Dewey J., 1927, PUBLIC ITS PROBLEMS; DIERKES M, 1973, CORPORATE SOCIAL ACC; Festinger L., 1957, THEORY COGNITIVE DIS; FREDERICK WC, 1974, PUBLIC AFFAIRS COUNC; GROSS BM, 1966, STATE NATION SOCIAL; Grunig J. E., 1976, JOURNALISM MONOGRAPH; GRUNIG JE, 1978, JOURNALISM QUART, V55, P109, DOI 10.1177/107769907805500115; GRUNIG JE, 1979, JOURNALISM QUART, V56, P248, DOI 10.1177/107769907905600204; GRUNIG JE, 1977, COMMUN RES, V4, P145, DOI 10.1177/009365027700400202; GRUNIG JE, 1975, COMMUN RES, V2, P99, DOI 10.1177/009365027500200201; GRUNIG JE, 1978, HUMAN COMMUNICATION, V4, P40; GRUNIG JE, 1978, JOURNALISM Q, V55, P124; GRUNIG JE, 1977, PUBLIC RELAT REV, V3, P61; GRUNIG JE, UNPUBLISHED; Hargreaves J., 1975, BUSINESS SURVIVAL SO; HOLMES SL, 1977, ACAD MANAGE J, V20, P433, DOI 10.2307/255416; KAPP W, 1971, SOCIAL COSTS PRIVATE; Keim G D, 1978, Acad Manage Rev, V3, P32, DOI 10.2307/257574; KLECKA WR, 1978, PUBLIC OPIN QUART, V42, P105, DOI 10.1086/268433; KRUGMAN HE, 1965, PUBLIC OPIN QUART, V29, P349, DOI 10.1086/267335; KRUGMAN HE, 1970, PUBLIC OPIN QUART, V34, P184, DOI 10.1086/267788; Leifer R, 1978, Acad Manage Rev, V3, P40, DOI 10.2307/257575; Lerbinger O., 1975, PUBLIC RELAT REV, V1, P38; LERBINGER O, 1965, INFORMATION INFLUENC, P53; LINOWES DF, 1974, CORPORATE CONSCIENCE; MANNE HG, 1973, MODERN CORPORATION S; OLSON M, 1973, NO GROWTH SOC; *PUBL AFF COUNC, 1973, CORP SOC AUD ANN BIB; SETHI SP, 1974, UNSTABLE GROUND CORP; STAMM KR, 1972, J ENVIRON EDUC, V3, P56, DOI 10.1080/00958964.1972.10801663; STAMM KR, 1977, JOURNALISM QUART, V54, P713, DOI 10.1177/107769907705400407; Votaw D., 1973, CORPORATE DILEMMA	42	44	44	2	18	ACAD MANAGEMENT	ADA	PO BOX 39 300 SOUTH UNION STREET, ADA, OH 45810-0039	0001-4273			ACAD MANAGE J	Acad. Manage. J.		1979	22	4					738	764		10.2307/255812				27	Business; Management	Business & Economics	HW808	WOS:A1979HW80800006					2019-01-18	
J	STUMPF, SA; FREEDMAN, RD; ZAND, DE				STUMPF, SA; FREEDMAN, RD; ZAND, DE			JUDGMENTAL DECISIONS - STUDY OF INTERACTIONS AMONG GROUP MEMBERSHIP, GROUP FUNCTIONING, AND THE DECISION SITUATION	ACADEMY OF MANAGEMENT JOURNAL			English	Article										STUMPF, SA (reprint author), NYU,NEW YORK,NY 10003, USA.						ARGYRIS C, 1968, PSYCHOL BULL, V70, P185, DOI 10.1037/h0026145; ARMSTRONG JS, 1977, J BUS RES, V5, P185, DOI 10.1016/0148-2963(77)90011-X; BASS BM, 1970, J APPL BEHAV SCI, V6, P151, DOI 10.1177/002188637000600202; Cohen J., 1975, APPLIED MULTIPLE REG; COLLAROS PA, 1969, J APPL PSYCHOL, V53, P159, DOI 10.1037/h0027034; Coser Lewis, 1956, FUNCTIONS SOCIAL CON; CUMMINGS LL, 1974, ACAD MANAGE J, V17, P460, DOI 10.2307/254650; Delbecq Andre, 1975, GROUP TECHNIQUES PRO; DUTTON JM, 1966, HUM ORGAN, V25, P207, DOI 10.17730/humo.25.3.n044386091127v88; FELSENTHAL DS, 1976, ADMIN SCI QUART, V21, P474, DOI 10.2307/2391855; GERGEN K, 1968, STUDY POLICY FORMULA, P181; GLADWIN TN, 1976, FINAL REPORT CAUSES; GREEN TB, 1975, ACAD MANAGE J, V18, P63, DOI 10.2307/255625; GUSTAFSON DH, 1973, ORGAN BEHAV HUM PERF, V9, P280, DOI 10.1016/0030-5073(73)90052-4; HACKMAN JR, 1968, J EXP SOC PSYCHOL, V4, P162, DOI 10.1016/0022-1031(68)90040-1; HALL J, 1966, J PERS SOC PSYCHOL, V3, P214, DOI 10.1037/h0022896; HELLMAN P, 1976, NY TIMES MAGAZI 1024, P16; HOFFMAN LR, 1965, ADV EXP SOC PSYCHOL, V2, P99; KATZ D, 1966, SOCIAL PSYCHOLOGY; KENT RN, 1969, J EXP SOC PSYCHOL, V5, P429, DOI 10.1016/0022-1031(69)90035-3; LONDON M, 1977, J APPL PSYCHOL, V62, P76; LONDON M, 1975, J APPL PSYCHOL, V60, P537; MacCrimmon KR, 1976, HDB IND ORG PSYCHOL, P1397; Maier N. R. F., 1970, PROBLEM SOLVING CREA; Maier N. R. F., 1963, PROBLEM SOLVING DISC; MAIER NRF, 1957, SUPERVISORY EXECUTIV; MANNERS GE, 1975, ACAD MANAGE J, V18, P715, DOI 10.2307/255374; MINTZBERG H, 1976, ADMIN SCI QUART, V21, P246, DOI 10.2307/2392045; Nutt P.C., 1976, DECISION SCI, V7, P739; NUTT PC, 1976, ACAD MANAGE J, V19, P378, DOI 10.2307/255605; OCONNELL JJ, 1977, MANAGERIAL MIND, P554; PFEIFFER JW, 1974, 1974 ANN HDB GROUP F, P44; Shaw M. E., 1976, GROUP DYNAMICS PSYCH; VANDEVEN A, 1971, ACAD MANAGE J, V14, P203, DOI 10.2307/255307; VANDEVEN AH, 1974, ACAD MANAGE J, V17, P605, DOI 10.2307/255641; Vroom V. H., 1973, LEADERSHIP DECISION; WALTON RE, 1969, ADMIN SCI QUART, V14, P73, DOI 10.2307/2391364; Work Group Ownership of an Improved Tool, 1956, PERSONNEL ADM POINT; ZAND D, 1978, BUS HORIZONS, V21, P36, DOI 10.1016/0007-6813(78)90113-1; ZAND DE, 1974, J APPL BEHAV SCI, V10, P63, DOI 10.1177/002188637401000108	40	23	23	0	7	ACAD MANAGEMENT	ADA	PO BOX 39 300 SOUTH UNION STREET, ADA, OH 45810-0039	0001-4273			ACAD MANAGE J	Acad. Manage. J.		1979	22	4					765	782		10.2307/255813				18	Business; Management	Business & Economics	HW808	WOS:A1979HW80800007					2019-01-18	
J	BAIRD, LS; HAMNER, WC				BAIRD, LS; HAMNER, WC			INDIVIDUAL VERSUS SYSTEMS REWARDS - WHOS DISSATISFIED, WHY, AND WHAT IS THEIR LIKELY RESPONSE	ACADEMY OF MANAGEMENT JOURNAL			English	Article									DUKE UNIV, DURHAM, NC 27706 USA	BAIRD, LS (reprint author), BOSTON UNIV, SCH MANAGEMENT, BOSTON, MA 02215 USA.						ADAMS JS, 1965, ADV EXP SOC PSYCHOL, V2, P267; BAIRD LS, 1976, P ACADEMY MANAGEMENT, P70; CHERRINGTON DJ, 1971, J APPL PSYCHOL, V55, P531, DOI 10.1037/h0032041; GREENE CN, 1978, P ACADEMY MANAGEMENT, P206; HACKMAN JR, 1976, ORGAN BEHAV HUM PERF, V16, P250, DOI 10.1016/0030-5073(76)90016-7; HAMNER WC, 1974, ORGAN BEHAV HUM PERF, V12, P217; KATZ D, 1966, SOCIAL PSYCHOLOGY OR; Lawler E. E., 1977, IMPROVING LIFE WORK, P163; March J. G., 1958, ORGANIZATIONS; PORTER LW, 1973, PSYCHOL BULL, V80, P151, DOI 10.1037/h0034829; SCOTT WE, 1966, ORGAN BEHAV HUM PERF, V1, P3, DOI 10.1016/0030-5073(66)90003-1; Skinner B. F., 1969, CONTINGENCIES REINFO; Steers R. M., 1977, ACAD MANAGE REV, V2, P645; STEERS RM, 1978, J APPL PSYCHOL, V63, P391, DOI 10.1037//0021-9010.63.4.391; YUKL G, 1972, J APPL PSYCHOL, V56, P19, DOI 10.1037/h0032137	15	2	2	1	6	ACAD MANAGEMENT	BRIARCLIFF MANOR	PACE UNIV, PO BOX 3020, 235 ELM RD, BRIARCLIFF MANOR, NY 10510-8020 USA	0001-4273	1948-0989		ACAD MANAGE J	Acad. Manage. J.		1979	22	4					783	792		10.2307/255814				10	Business; Management	Business & Economics	HW808	WOS:A1979HW80800008					2019-01-18	
J	MCFILLEN, JM; NEW, JR				MCFILLEN, JM; NEW, JR			SITUATIONAL DETERMINANTS OF SUPERVISOR ATTRIBUTIONS AND BEHAVIOR	ACADEMY OF MANAGEMENT JOURNAL			English	Article									UNIV BALTIMORE,DEPT MANAGEMENT,BALTIMORE,MD	MCFILLEN, JM (reprint author), OHIO STATE UNIV,COLL ADMINISTRAT SCI,COLUMBUS,OH 43210, USA.						BECKMAN L, 1970, J EDUC PSYCHOL, V61, P75; CALDER BJ, 1973, J PERS SOC PSYCHOL, V25, P84, DOI 10.1037/h0034264; CALDER BJ, 1974, J EXP SOC PSYCHOL, V10, P121, DOI 10.1016/0022-1031(74)90060-2; CALDER BJ, 1977, NEW DIRECTIONS ORG B, P177; CARLSMIT.JM, 1966, J PERS SOC PSYCHOL, V4, P1, DOI 10.1037/h0023507; FARRIS CF, 1969, J APPLIED PSYCHOLOGY, V53, P490; FEATHER NT, 1969, J PERS SOC PSYCHOL, V13, P129, DOI 10.1037/h0028071; FISHBEIN M, 1973, J EXPT SOCIAL PSYCHO, V9, P143; FITCH G, 1970, J PERS SOC PSYCHOL, V16, P311, DOI 10.1037/h0029847; GOODSTAD.B, 1970, J APPL PSYCHOL, V54, P201, DOI 10.1037/h0029265; GREENE CN, 1975, J APPL PSYCHOL, V60, P187, DOI 10.1037/h0076552; Hastorf A. H., 1970, PERSON PERCEPTION; HEIDER F, 1958, PSYCHOLOGY INTERPERS; JELLISON JM, 1972, J PERS SOC PSYCHOL, V22, P135, DOI 10.1037/h0032601; Jones E. E, 1972, ATTRIBUTION PERCEIVI; JONES EE, 1961, J ABNORM SOC PSYCH, V63, P302, DOI 10.1037/h0048514; Jones EE, 1965, ADVANCES EXPERIMENTA, V2, P220; KELLEY HH, 1967, NEBRASKA S MOTIVATIO, V14, P192; KIPNIS D, 1969, J APPL PSYCHOL, V53, P460, DOI 10.1037/h0028668; KRUGLANSKI AW, 1970, J EXP SOC PSYCHOL, V6, P214, DOI 10.1016/0022-1031(70)90088-0; LANZETTA JT, 1969, J PERS SOC PSYCHOL, V11, P245, DOI 10.1037/h0027044; LERNER MJ, 1965, J PERS SOC PSYCHOL, V1, P355, DOI 10.1037/h0021806; LEVENTHAL GS, 1971, J PERS SOC PSYCHOL, V17, P229, DOI 10.1037/h0030602; LEVENTHAL GS, 1973, J PERS SOC PSYCHOL, V25, P75, DOI 10.1037/h0034276; LOWIN A, 1968, ORGAN BEHAV HUM PERF, V3, P440, DOI 10.1016/0030-5073(68)90020-2; MESSICK DM, 1972, J EXP SOC PSYCHOL, V8, P482, DOI 10.1016/0022-1031(72)90073-X; REST S, 1973, J PERS SOC PSYCHOL, V28, P187, DOI 10.1037/h0035739; ROSS L, 1974, J PERS SOC PSYCHOL, V29, P609, DOI 10.1037/h0036740; ROTHBART M, 1968, J PERS SOC PSYCHOL, V9, P353, DOI 10.1037/h0026087; STREUFERT S, 1969, J PERS SOC PSYCHOL, V11, P138, DOI 10.1037/h0027047; STRICKLAND LH, 1958, J PERS, V26, P200, DOI 10.1111/j.1467-6494.1958.tb01580.x; THOMPSON DD, 1972, J PERS SOC PSYCHOL, V23, P302, DOI 10.1037/h0033139; WEINER B, 1970, J PERS SOC PSYCHOL, V15, P1, DOI 10.1037/h0029211; WOLOSIN RJ, 1973, J EXP SOC PSYCHOL, V9, P220, DOI 10.1016/0022-1031(73)90011-5	34	3	3	2	7	ACAD MANAGEMENT	ADA	PO BOX 39 300 SOUTH UNION STREET, ADA, OH 45810-0039	0001-4273			ACAD MANAGE J	Acad. Manage. J.		1979	22	4					793	809		10.2307/255815				17	Business; Management	Business & Economics	HW808	WOS:A1979HW80800009					2019-01-18	
J	DAFT, RL				DAFT, RL			SYSTEM INFLUENCE ON ORGANIZATIONAL DECISION-MAKING - CASE OF RESOURCE-ALLOCATION	ACADEMY OF MANAGEMENT JOURNAL			English	Article										DAFT, RL (reprint author), QUEENS UNIV,SCH BUSINESS,KINGSTON K7L 3N6,ONTARIO,CANADA.						ANDERSON TR, 1970, PACIFIC SOCIOLOGICAL, V13, P241; Baldridge J. V., 1971, POWER CONFLICT U; BECKER S, UNPUBLISHED; BIDWELL CE, 1975, AM SOCIOL REV, V40, P55, DOI 10.2307/2094447; BLAU P, 1972, SOC SCI RES, V1, P1, DOI DOI 10.1016/0049-089X(72)90055-5; BLAU PM, 1970, AM SOCIOL REV, V35, P201, DOI 10.2307/2093199; CHILD J, 1973, ADMIN SCI QUART, V18, P328, DOI 10.2307/2391667; CORWIN RG, 1975, SOCIOL EDUC, V48, P1, DOI 10.2307/2112048; CYERT RM, 1963, BEHAVIORAL THEORY FI; DAFT RL, INNOVATIVE ORGANIZAT; FREEMAN JH, 1973, SOC FORCES, V52, P108, DOI 10.2307/2576428; GUTHRIE JW, 1971, SCH INEQUALITY; HAAS E, 1963, SOC FORCES, V42, P9, DOI 10.2307/2574940; Hall R. H., 1972, ORGANIZATIONS STRUCT; HOLDAWAY EA, 1971, AM SOCIOL REV, V36, P278, DOI 10.2307/2094044; INDIK BP, 1964, ADMIN SCI QUART, V9, P301, DOI 10.2307/2391443; JAMES TF, 1972, SOCIOL QUART, V13, P533, DOI 10.1111/j.1533-8525.1972.tb00835.x; KASARDA JD, 1974, AM SOCIOL REV, V39, P19, DOI 10.2307/2094273; KASARDA JD, 1973, SOCIOL QUART, V14, P350, DOI 10.1111/j.1533-8525.1973.tb00865.x; KLATZKY SR, 1970, ADMIN SCI QUART, V15, P428, DOI 10.2307/2391335; LAZARSFELD PF, 1961, COMPLEX ORGANIZATION; MACMILLAN A, UNPUBLISHED; MEYER MW, 1968, ADMIN SCI QUART, V13, P211, DOI 10.2307/2391452; PFEFFER J, 1974, ADMIN SCI QUART, V19, P135, DOI 10.2307/2393885; PONDY LR, 1969, ADMIN SCI QUART, V14, P47, DOI 10.2307/2391361; PONDY LR, 1970, POWER ORGANIZATIONS; PUGH DS, 1969, ADMIN SCI QUART, V14, P91, DOI 10.2307/2391366; RUSHING WA, 1967, ADMIN SCI QUART, V12, P273, DOI 10.2307/2391552; THOMPSON JD, 1967, ORGANIZATIONS ACTION	29	9	9	1	3	ACAD MANAGEMENT	ADA	PO BOX 39 300 SOUTH UNION STREET, ADA, OH 45810-0039	0001-4273			ACAD MANAGE J	Acad. Manage. J.		1978	21	1					6	22		10.2307/255658				17	Business; Management	Business & Economics	EQ210	WOS:A1978EQ21000001					2019-01-18	
J	MORSE, JJ; WAGNER, FR				MORSE, JJ; WAGNER, FR			MEASURING PROCESS OF MANAGERIAL EFFECTIVENESS	ACADEMY OF MANAGEMENT JOURNAL			English	Article									LOYOLA MARYMOUNT UNIV,LOS ANGELES,CA	MORSE, JJ (reprint author), UNIV CALIF LOS ANGELES,GRAD SCH MANAGEMENT,LOS ANGELES,CA 90024, USA.						CAMPBELL JP, 1970, MANAGERIAL BEHAVIOR; CROWNE DP, 1960, J CONSULT PSYCHOL, V24, P349, DOI 10.1037/h0047358; KAST FE, 1974, ORGANIZATION MANAGEM; LAWRENCE PR, 1967, ORGANIZATION ENVIRON; LORSCH JW, 1974, ORGANIZATIONS THEIR; Mintzberg H, 1973, NATURE MANAGERIAL WO; Porter L.W., 1968, MANAGERIAL ATTITUDES; PORTER LW, 1975, BEHAVIOR ORGANIZATIO; Winer BJ, 1971, STATISTICAL PRINCIPL	9	56	56	1	5	ACAD MANAGEMENT	ADA	PO BOX 39 300 SOUTH UNION STREET, ADA, OH 45810-0039	0001-4273			ACAD MANAGE J	Acad. Manage. J.		1978	21	1					23	35		10.2307/255659				13	Business; Management	Business & Economics	EQ210	WOS:A1978EQ21000002					2019-01-18	
J	WHITE, JK				WHITE, JK			GENERALIZABILITY OF INDIVIDUAL DIFFERENCE MODERATORS OF PARTICIPATION IN DECISION MAKING EMPLOYEE RESPONSE RELATIONSHIP	ACADEMY OF MANAGEMENT JOURNAL			English	Article										WHITE, JK (reprint author), MICHIGAN STATE UNIV,E LANSING,MI 48824, USA.						ALDAG RJ, 1975, RELATIONSHIPS JOB SA; ALDAG RJ, 1975, J BUSINESS RES, V4, P311; BLOOD MR, 1967, J APPL PSYCHOL, V51, P284, DOI 10.1037/h0024683; BLOOD MR, 1968, THESIS U ILLINOIS; BLOOD MR, 1969, DISS ABSTR INT, V30, pB423; BRIEF AP, 1975, J APPL PSYCHOL, V60, P182, DOI 10.1037/h0076548; DUNHAM RB, 1977, ACAD MANAGE J, V20, P42, DOI 10.2307/255461; GHISELLI EE, 1956, J APPL PSYCHOL, V40, P374, DOI 10.1037/h0048071; HACKMAN JR, 1971, J APPL PSYCHOL, V55, P259, DOI 10.1037/h0031152; HULIN CL, 1968, PSYCHOL BULL, V69, P41, DOI 10.1037/h0025356; LAWLER EE, 1972, MAY M MIDW PSYCH ASS; LODAHL TM, 1965, J APPL PSYCHOL, V49, P24, DOI 10.1037/h0021692; OLDHAM GR, 1976, HUM RELAT, V29, P559, DOI 10.1177/001872677602900605; PATCHEN M, 1964, PERS ADMIN, V27, P24; PIERCE JL, 1976, ACAD MANAGE REV, V1, P83, DOI DOI 10.5465/AMR.1976.4396611; Rokeach M., 1968, BELIEFS ATTITUDES VA; SEARFOSS DG, 1973, ACAD MANAGE J, V16, P541, DOI 10.2307/254689; STONE EF, 1976, ORGAN BEHAV HUM PERF, V15, P147, DOI 10.1016/0030-5073(76)90034-9; TOSI H, 1970, PERS PSYCHOL, V23, P91, DOI 10.1111/j.1744-6570.1970.tb01638.x; VROOM VH, 1959, J ABNORM SOC PSYCH, V59, P322, DOI 10.1037/h0049057; VROOM VH, 1960, PERSONALITY DETERMIN; WHITE JK, 1973, ADMIN SCI QUART, V18, P506, DOI 10.2307/2392202; WHITE JK, 1977, JSAS CATALOG SELECTE, V7, P56; WHITE JK, ACADEMY MANAGEMENT R	24	15	15	0	3	ACAD MANAGEMENT	ADA	PO BOX 39 300 SOUTH UNION STREET, ADA, OH 45810-0039	0001-4273			ACAD MANAGE J	Acad. Manage. J.		1978	21	1					36	43		10.2307/255660				8	Business; Management	Business & Economics	EQ210	WOS:A1978EQ21000003					2019-01-18	
J	DRISCOLL, JW				DRISCOLL, JW			TRUST AND PARTICIPATION IN ORGANIZATIONAL DECISION-MAKING AS PREDICTORS OF SATISFACTION	ACADEMY OF MANAGEMENT JOURNAL			English	Article										DRISCOLL, JW (reprint author), MIT,SLOAN SCH MANAGEMENT,CAMBRIDGE,MA 02139, USA.						ALUTTO JA, 1974, ACAD MANAGE J, V17, P160, DOI 10.2307/254781; ALUTTO JA, 1972, ADMIN SCI QUART, V17, P117, DOI 10.2307/2392100; CITRIN J, 1974, AM POLIT SCI REV, V68, P973, DOI 10.2307/1959141; Dahrendorf R, 1959, CLASS CLASS CONFLICT; DARLINGTON RB, 1968, PSYCHOL BULL, V69, P161, DOI 10.1037/h0025471; DARLINGTON RB, 1974, RADICALS SQUARES STA; Gamson W. A., 1968, POWER DISCONTENT; Kerlinger F. N., 1973, MULTIPLE REGRESSION; LISCHERON JA, 1975, HUM RELAT, V28, P863, DOI 10.1177/001872677502800906; LOWIN A, 1968, ORGAN BEHAV HUM PERF, V3, P68, DOI 10.1016/0030-5073(68)90028-7; Mischel W., 1968, PERSONALITY ASSESSME; RITCHIE JB, 1974, ORGANIZATIONAL BEHAV; ROSENBERG M, 1956, AM SOCIOL REV, V21, P690, DOI 10.2307/2088419; ROTTER JB, 1971, AM PSYCHOL, V26, P443, DOI 10.1037/h0031464; Stogdill R. M., 1974, HDB LEADERSHIP SURVE; STRAUSS G, 1963, SOCIAL SCI ORGANIZAT; VROOM VH, 1960, PERSONALITY DETERMIN; WOOD MT, 1973, PSYCHOL BULL, V79, P280, DOI 10.1037/h0034618; WOOD MT, 1972, J VOCAT BEHAV, V2, P389, DOI 10.1016/0001-8791(72)90014-0	19	218	225	4	27	ACAD MANAGEMENT	ADA	PO BOX 39 300 SOUTH UNION STREET, ADA, OH 45810-0039	0001-4273			ACAD MANAGE J	Acad. Manage. J.		1978	21	1					44	56		10.2307/255661				13	Business; Management	Business & Economics	EQ210	WOS:A1978EQ21000004					2019-01-18	
J	KEIM, GD				KEIM, GD			MANAGERIAL BEHAVIOR AND SOCIAL-RESPONSIBILITY DEBATE - GOALS VERSUS CONSTRAINTS	ACADEMY OF MANAGEMENT JOURNAL			English	Article										KEIM, GD (reprint author), TEXAS A&M UNIV,COLL BUSINESS ADM,COLLEGE STN,TX 77843, USA.						ALCHIAN A, 1969, EC POLICY REGULATION, P337; ALCHIAN AA, 1965, J IND ECON, V14, P30, DOI 10.2307/2097649; ALCHIAN AA, 1972, AM ECON REV, V62, P777; Berle A., 1968, MODERN CORPORATION P; DAVIS K, 1975, BUSINESS SOC ENVIRON; Downs Anthony, 1957, ECONOMIC THEORY DEMO; Eilbert H., 1973, BUS HORIZONS, V16, P5; FOGLER HR, 1975, ACAD MANAGE J, V18, P155, DOI 10.2307/255635; HOLMES SL, 1976, BUS HORIZONS, V19, P34, DOI 10.1016/0007-6813(76)90049-5; Knight F., 1921, RISK UNCERTAINTY PRO; LEWELLEN WG, 1970, AM ECON REV, V60, P710; LEWELLEN WG, 1969, J FINANC, V24, P299, DOI 10.2307/2325296; Manne H. G., 1972, MODERN CORPORATION S; MANNE HG, 1964, COLUMBIA LAW REV, V64, P1427, DOI 10.2307/1120766; MCGUIRE JW, 1974, REV SOC ECON, V32, P62, DOI 10.1080/00346767400000005; MCGUIRE JW, 1971, CALIF MANAGE REV, V13, P79, DOI 10.2307/41164322; MUELLER DC, 1976, J ECON LIT, V14, P395; Olson M., 1971, LOGIC COLLECTIVE ACT; Riker William, 1973, INTRO POSITIVE POLIT; SHAPIRO H, 1974, BUSINESS SOC REV, P90; Smith A., 1973, WEALTH NATIONS; STEINER G, 1974, CHANGING BUSINESS RO, P38; STEINER GA, 1975, BUSINESS SOC; Vance S., 1975, MANAGE REV, V64, P18; WATSON JH, 1973, BIENNIAL SURVEY CO C; WILLIAMSON O, 1968, PRICES ISSUES THEORY; Williamson O. E., 1970, CORPORATE CONTROL BU; WILSON JQ, 1974, SOCIAL RESPONSIBILIT, P135	28	32	32	0	3	ACAD MANAGEMENT	ADA	PO BOX 39 300 SOUTH UNION STREET, ADA, OH 45810-0039	0001-4273			ACAD MANAGE J	Acad. Manage. J.		1978	21	1					57	68		10.2307/255662				12	Business; Management	Business & Economics	EQ210	WOS:A1978EQ21000005					2019-01-18	
J	LARWOOD, L; KAVANAGH, M; LEVINE, R				LARWOOD, L; KAVANAGH, M; LEVINE, R			PERCEPTIONS OF FAIRNESS WITH 3 ALTERNATIVE ECONOMIC EXCHANGES	ACADEMY OF MANAGEMENT JOURNAL			English	Article									CLAREMONT GRAD SCH,CLAREMONT,CA 91711; SUNY BINGHAMTON,SCH MANAGEMENT,BINGHAMTON,NY 13901; SUNY ALBANY,ALBANY,NY 12203	LARWOOD, L (reprint author), CLAREMONT MENS COLL,CLAREMONT,CA 91711, USA.						Adams J. S, 1965, ADV EXPT SOCIAL PSYC, V2; Blau P., 1964, EXCHANGE POWER SOCIA; COOK KS, 1975, AM SOCIOL REV, V40, P372, DOI 10.2307/2094464; EDWARDS AL, 1972, EXPT DESIGN PSYCHOLO; Ekeh Peter P., 1974, SOCIAL EXCHANGE THEO; Festinger L, 1954, HUM RELAT, V7, P117, DOI 10.1177/001872675400700202; GARLAND H, 1973, J APPL SOC PSYCHOL, V3, P325, DOI 10.1111/j.1559-1816.1973.tb02399.x; GERGEN KJ, 1974, J APPL SOC PSYCHOL, V4, P259, DOI 10.1111/j.1559-1816.1974.tb02645.x; GOODMAN PS, 1971, ADMIN SCI QUART, V16, P271, DOI 10.2307/2391900; GORDON V, 1970, PERSONNEL PSYCHOLOGY, V23, P1; GUILFORD JP, 1965, FUNDAMENTAL STATISTI; LARWOOD L, 1974, THESIS TULANE U; LAWLER EE, 1971, PAY ORGANIZATIONAL E; LERNER MJ, 1974, PERSPECTIVES INTERPE; MAIER NRF, 1967, J PERS SOC PSYCHOL, V5, P304, DOI 10.1037/h0024277; McClelland D. C., 1953, ACHIEVEMENT MOTIVE; PORTER LW, 1973, PSYCHOL BULL, V80, P151, DOI 10.1037/h0034829; ROTTER JB, 1966, PSYCHOLOGICAL MONOGR, V80	18	10	10	0	2	ACAD MANAGEMENT	ADA	PO BOX 39 300 SOUTH UNION STREET, ADA, OH 45810-0039	0001-4273			ACAD MANAGE J	Acad. Manage. J.		1978	21	1					69	83		10.2307/255663				15	Business; Management	Business & Economics	EQ210	WOS:A1978EQ21000006					2019-01-18	
J	JAUCH, LR; GLUECK, WF; OSBORN, RN				JAUCH, LR; GLUECK, WF; OSBORN, RN			ORGANIZATIONAL LOYALTY, PROFESSIONAL COMMITMENT, AND ACADEMIC RESEARCH PRODUCTIVITY	ACADEMY OF MANAGEMENT JOURNAL			English	Article									UNIV GEORGIA,ATHENS,GA 30602	JAUCH, LR (reprint author), SO ILLINOIS UNIV,DEPT ADM SCI,CARBONDALE,IL 62901, USA.						ABRAHAMSON M, 1956, ADMIN SCI QUART, V10, P98; AVERY RW, 1960, IRE TRANS ENG MANAGE, V7, P20, DOI 10.1109/IRET-EM.1960.5007526; BERGER PK, 1973, ADMIN SCI QUART, V18, P223, DOI 10.2307/2392065; BIGLAN A, 1971, CONVERGENCE ACADEMIC; BLAU PM, 1962, FORMAL ORGANIZATIONS; BROWN ME, 1969, ADMIN SCI QUART, V14, P346, DOI 10.2307/2391129; CHASE JM, 1970, AM SOCIOL, V5, P262; CLARK CB, 1971, J HIGHER EDUCATION, V42, P499; DELBECQ AL, 1970, ACAD MANAGE J, V13, P373, DOI 10.2307/254828; FILLEY A, 1968, PROMISING RESEARCH D; FLANGO VE, 1974, ADMIN SCI QUART, V19, P198, DOI 10.2307/2393889; FRIEDLANDER F, 1971, ORGAN BEHAV HUM PERF, V6, P169, DOI 10.1016/0030-5073(71)90011-0; GLUECK WF, 1971, MANAGEMENT SCIENTIFI; GOLDBERG LC, 1965, AM J SOCIOL, V70, P704, DOI 10.1086/223964; GOULDNER AW, 1958, ADMIN SCI QUART, V2, P444, DOI 10.2307/2390795; GOULDNER AW, 1957, ADMIN SCI QUART, V2, P281, DOI 10.2307/2391000; GRIMES AJ, 1970, ADMIN SCI QUART, V15, P407, DOI 10.2307/2391332; HALL DT, 1970, ADMIN SCI QUART, V15, P176, DOI 10.2307/2391488; HOUSE R, 1968, COSMOPOLITANS LOCALS; JAUCH LR, 1975, MANAGE SCI, V22, P66, DOI 10.1287/mnsc.22.1.66; JAUCH LR, 1973, THESIS U MISSOURI; JENNINGS E, 1972, EXECUTIVE CRISIS; Kaufman Herbert, 1960, FOREST RANGER STUDY; KNAPP R, 1962, AM COLLEGE; LEE SM, 1971, ACAD MANAGE J, V14, P213, DOI 10.2307/255308; LEE SM, 1969, ACAD MANAGE J, V12, P327, DOI 10.2307/255180; MARCSON S, 1960, SCIENTIST AM INDUSTR; MCNEIL KA, 1975, TESTING RESEARCH HYP; Merton Robert King, 1957, SOCIAL THEORY SOCIAL; ROTONDI Jr T., 1975, ORGAN BEHAV HUM PREF, V16, P143; SHEPARD HA, 1956, ADMINISTRATIVE SCIEN, V1, P340; STEELE L, 1969, R D GAME; THORP CD, 1970, THESIS U MISSOURI; ZUCKERMAN H, 1971, MINERVA, V9, P66, DOI 10.1007/BF01553188	34	56	56	0	24	ACAD MANAGEMENT	ADA	PO BOX 39 300 SOUTH UNION STREET, ADA, OH 45810-0039	0001-4273			ACAD MANAGE J	Acad. Manage. J.		1978	21	1					84	92		10.2307/255664				9	Business; Management	Business & Economics	EQ210	WOS:A1978EQ21000007					2019-01-18	
J	RENWICK, PA; TOSI, H				RENWICK, PA; TOSI, H			EFFECTS OF SEX, MARITAL-STATUS, AND EDUCATIONAL BACKGROUND ON SELECTION DECISIONS	ACADEMY OF MANAGEMENT JOURNAL			English	Article									MICHIGAN STATE UNIV,GRAD SCH BUSINESS,E LANSING,MI 48824	RENWICK, PA (reprint author), UNIV CALIF IRVINE,GRAD SCH ADM,IRVINE,CA 92664, USA.						BERNSTEN V, 1975, J APPL PSYCHOL, V60, P266, DOI 10.1037/h0076544; CECIL EA, 1973, PERS PSYCHOL, V26, P397, DOI 10.1111/j.1744-6570.1973.tb01147.x; COHEN SL, 1975, J APPL PSYCHOL, V60, P566, DOI 10.1037/0021-9010.60.5.566; DIPBOYE RL, 1975, J APPL PSYCHOL, V60, P39, DOI 10.1037/h0076352; EPSTEIN CF, 1975, BRINGING WOMEN MANAG, P7; GARFINKLE SH, 1975, MON LABOR REV, V98, P25; GRANT WV, 1976, DIGEST EDUCATIONAL S; HAMNER WC, 1974, J APPL PSYCHOL, V59, P705, DOI 10.1037/h0037503; OLEARY VE, 1974, PSYCHOL BULL, V81, P809, DOI 10.1037/h0037267; PARK R, 1973, CORPORATE LIB, P39; ROSEN B, 1974, HARVARD BUS REV, V52, P45; ROSEN B, 1973, J APPL PSYCHOL, V57, P44, DOI 10.1037/h0034198; ROSEN B, 1974, J APPL PSYCHOL, V59, P511, DOI 10.1037/h0037323; ROSEN B, 1974, J APPL PSYCHOL, V59, P9, DOI 10.1037/h0035834; ROSEN B, 1975, J APPL PSYCHOL, V60, P442, DOI 10.1037/h0076917; SCHEFFE H, 1953, BIOMETRIKA, V40, P87, DOI 10.1093/biomet/40.1-2.87; SCHEIN VE, 1973, J APPL PSYCHOL, V57, P95, DOI 10.1037/h0037128; Siegel S., 1956, NONPARAMETRIC STATIS; SPENCE JT, 1972, J APPL SOC PSYCHOL, V2, P197, DOI 10.1111/j.1559-1816.1972.tb01272.x; 1975, BUSINESS WEEK   1124, P58	20	40	40	1	5	ACAD MANAGEMENT	ADA	PO BOX 39 300 SOUTH UNION STREET, ADA, OH 45810-0039	0001-4273			ACAD MANAGE J	Acad. Manage. J.		1978	21	1					93	103		10.2307/255665				11	Business; Management	Business & Economics	EQ210	WOS:A1978EQ21000008					2019-01-18	
J	ROSE, GL; ANDIAPPAN, P				ROSE, GL; ANDIAPPAN, P			SEX EFFECTS ON MANAGERIAL HIRING DECISIONS	ACADEMY OF MANAGEMENT JOURNAL			English	Article									UNIV NEW BRUNSWICK,SCH ADM,FREDERICTON E3B 5A3,NB,CANADA	ROSE, GL (reprint author), UNIV IOWA,COLL BUSINESS ADM,IOWA CITY,IA 52240, USA.						BARTOL KM, 1975, IND LABOR RELAT REV, V28, P524, DOI 10.2307/2521649; BEM SL, 1976, J PERS SOC PSYCHOL, V33, P48, DOI 10.1037/h0078640; BRIEF AP, 1976, J PSYCHOL, V92, P25, DOI 10.1080/00223980.1976.9921329; DIPBOYE RL, 1975, J APPL PSYCHOL, V60, P39, DOI 10.1037/h0076352; DUNNETTE MD, 1966, PERSONNEL SELECTION; ESKILSON A, 1976, SOCIOMETRY, V39, P183, DOI 10.2307/2786511; FEATHER NT, 1975, J PERS SOC PSYCHOL, V31, P20, DOI 10.1037/h0076240; GOLDBERG P, 1968, TRANS-ACT-SOC SCI MO, V5, P28; HALL FS, 1976, ACAD MANAGE J, V19, P476, DOI 10.2307/255613; LINDQUIST EF, 1953, DESIGN ANALYSIS EXPT; LONDON M, 1976, J APPL PSYCHOL, V61, P199, DOI 10.1037/0021-9010.61.2.199; OSBORN RN, 1976, ACAD MANAGE J, V19, P439, DOI 10.2307/255609; ROSEN B, 1975, ORGAN BEHAV HUM PERF, V14, P151, DOI 10.1016/0030-5073(75)90018-5; ROSEN B, 1973, J APPL PSYCHOL, V57, P44, DOI 10.1037/h0034198; ROSEN B, 1974, J APPL PSYCHOL, V59, P511, DOI 10.1037/h0037323; ROSEN B, 1974, J APPL PSYCHOL, V59, P9, DOI 10.1037/h0035834; SCHEIN VE, 1973, J APPL PSYCHOL, V57, P95, DOI 10.1037/h0037128; SCHEIN VE, 1975, J APPL PSYCHOL, V60, P340, DOI 10.1037/h0076637; TAYNOR J, 1975, J PERS SOC PSYCHOL, V32, P381, DOI 10.1037/h0077096; TERBORG JR, 1975, ORGAN BEHAV HUM PERF, V13, P352, DOI 10.1016/0030-5073(75)90056-2	20	53	53	0	7	ACAD MANAGEMENT	ADA	PO BOX 39 300 SOUTH UNION STREET, ADA, OH 45810-0039	0001-4273			ACAD MANAGE J	Acad. Manage. J.		1978	21	1					104	112		10.2307/255666				9	Business; Management	Business & Economics	EQ210	WOS:A1978EQ21000009					2019-01-18	
J	YOUNG, JW				YOUNG, JW			SUBORDINATES EXPOSURE OF ORGANIZATIONAL VULNERABILITY TO SUPERIOR - SEX AND ORGANIZATIONAL EFFECTS	ACADEMY OF MANAGEMENT JOURNAL			English	Article										YOUNG, JW (reprint author), UNIV FLORIDA,COLL BUSINESS ADM,GAINESVILLE,FL 32601, USA.						ARGYRIS C, 1965, ORGANIZATION INNOVAT; ARGYRIS C, 1971, MANAGEMENT ORGANIZAT; ARGYRIS C, 1962, INTERPERSONAL COMPET; Argyris C., 1970, INTERVENTION THEORY; BENNIS W, 1968, INTERPERSONAL DYNAMI; BROOKS L, 1974, J COUNS PSYCHOL, V21, P469, DOI 10.1037/h0037288; Burns T, 1961, MANAGEMENT INNOVATIO; CARROLL SJ, 1973, MANAGEMENT OBJECTIVE; CHELUNE GJ, 1975, PSYCHOL REP, V37, P920, DOI 10.2466/pr0.1975.37.3.920; DUNCAN RB, 1972, ADMIN SCI QUART, V17, P313, DOI 10.2307/2392145; DUNCAN RB, 1973, HUM RELAT, V26, P273, DOI 10.1177/001872677302600301; DUTTON S, 1966, HUMAN ORGANIZATION, V25, P207; FISHER S, 1975, J NERV MENT DIS, V161, P90, DOI 10.1097/00005053-197508000-00003; GALBRAITH JR, 1970, STUDIES ORGANIZATION; HEILMAN ME, 1975, AM PSYCHOL, V30, P516, DOI 10.1037/0003-066X.30.4.516; HUSE E, 1975, ORGANIZATIONAL DEVEL; JOURARD SM, 1971, SELF DISCLOSURE EXPT; JOURARD SM, 1964, TRANSPARENT SELF; KOHEN JAS, 1975, J COUNS PSYCHOL, V22, P404, DOI 10.1037/h0077078; KOPFSTEIN JH, 1973, J CONSULT CLIN PSYCH, V41, P163, DOI 10.1037/h0035583; LAWRENCE PR, 1967, ADMIN SCI QUART, V12, P1, DOI 10.2307/2391211; LIKERT R, 1967, HUMAN ORGANIZATION; LITTLEFIELD RP, 1974, J COUNS PSYCHOL, V21, P133, DOI 10.1037/h0036464; Maier N. R. F., 1963, PROBLEM SOLVING DISC; MELLINGER GD, 1956, J ABNORM SOC PSYCH, V52, P304, DOI 10.1037/h0048100; Miller J. G., 1971, BEHAV SCI, V16, P278; MULCAHY GA, 1973, J YOUTH ADOLESCENCE, V2, P343, DOI 10.1007/BF02213705; OLEARY VE, 1975, J SOC PSYCHOL, V95, P139, DOI 10.1080/00224545.1975.9923250; OLSON CL, 1976, PSYCHOL BULL, V83, P579, DOI 10.1037/0033-2909.83.4.579; OSBORN RN, 1976, ACAD MANAGE J, V19, P439, DOI 10.2307/255609; Osgood C.E., 1957, MEASUREMENT MEANING; PERROW C, 1967, AM SOCIOL REV, V32, P194, DOI 10.2307/2091811; ROBERTS KH, 1974, HUM RELAT, V27, P501, DOI 10.1177/001872677402700507; RYCKMAN RM, 1973, J PSYCHOL, V84, P317, DOI 10.1080/00223980.1973.9923845; STEELE F, 1975, OPEN ORGANIZATION; Stogdill R., 1974, HDB LEADERSHIP; THOMPSON JD, 1967, ORGANIZATION ACTION; TOSI J, 1976, MANAGEMENT CONTINGEN; TURNER SA, 1975, PSYCHOLOGY, V12, P27; Vroom V. H., 1973, LEADERSHIP DECISION; YOUNG JG, UNPUBLISHED; YOUNG JW, 1974, TRUSTING BEHAVIOR IN; ZALTMAN G, 1973, INNOVATIONS ORGANIZA; ZAND DE, 1972, ADMIN SCI QUART, V17, P229, DOI 10.2307/2393957	44	11	11	0	3	ACAD MANAGEMENT	ADA	PO BOX 39 300 SOUTH UNION STREET, ADA, OH 45810-0039	0001-4273			ACAD MANAGE J	Acad. Manage. J.		1978	21	1					113	122		10.2307/255667				10	Business; Management	Business & Economics	EQ210	WOS:A1978EQ21000010					2019-01-18	
J	OUCHI, WG				OUCHI, WG			TRANSMISSION OF CONTROL THROUGH ORGANIZATIONAL HIERARCHY	ACADEMY OF MANAGEMENT JOURNAL			English	Article										OUCHI, WG (reprint author), STANFORD UNIV,GRAD SCH BUSINESS,DEPT SOCIOL,STANFORD,CA 94305, USA.						Dornbusch S., 1975, EVALUATION EXERCISE; DOWNS A, 1956, INSIDE BUREAUCRACY; EVANS PB, 1975, ADMIN SCI QUART, V20, P250, DOI 10.2307/2391697; FRANKLIN JL, 1975, ADMIN SCI QUART, V20, P153, DOI 10.2307/2391691; HOPWOOD AG, 1972, J ACCOUNT RES, V10, P156, DOI DOI 10.2307/2489870; March J. G., 1958, ORGANIZATIONS; OUCHI WG, 1975, ADMIN SCI QUART, V20, P559, DOI 10.2307/2392023; OUCHI WG, 1977, ADMIN SCI QUART, V22, P95, DOI 10.2307/2391748; Parsons T., 1960, STRUCTURE PROCESS MO; PATCHEN M, 1963, AM J SOCIOL, V69, P41, DOI 10.1086/223509; TANNENBAUM AS, 1968, CONTROL ORG; THIBAUT JW, 1959, SOCIAL PSYCHOLOGY GR; Tullock G, 1965, POLITICS BUREAUCRACY; WILLIAMSON O, 1971, CORPORATE CONTROL BU; Williamson O. E., 1975, MARKETS HIERARCHIES	15	105	106	0	11	ACAD MANAGEMENT	ADA	PO BOX 39 300 SOUTH UNION STREET, ADA, OH 45810-0039	0001-4273			ACAD MANAGE J	Acad. Manage. J.		1978	21	2					173	192		10.2307/255753				20	Business; Management	Business & Economics	FB777	WOS:A1978FB77700001					2019-01-18	
J	DAFT, RL				DAFT, RL			DUAL-CORE MODEL OF ORGANIZATIONAL INNOVATION	ACADEMY OF MANAGEMENT JOURNAL			English	Article										DAFT, RL (reprint author), QUEENS UNIV,SCH BUSINESS,KINGSTON K7L 3N6,ONTARIO,CANADA.						AIKEN M, 1971, SOCIOLOGY, V5, P63, DOI 10.1177/003803857100500105; ARGYRIS C, 1972, APPLICABILITY ORG SO; BALDRIDGE JV, 1975, ADMIN SCI QUART, V20, P165, DOI 10.2307/2391692; BECKER MH, 1970, AM SOCIOL REV, V35, P267, DOI 10.2307/2093205; BECKER SW, 1967, J BUS, V40, P462, DOI 10.1086/295011; Carlson R. O., 1965, ADOPTION ED INNOVATI; CARLSON RO, 1964, INNOVATION ED; CHILD J, 1972, SOCIOLOGY, V6, P1, DOI 10.1177/003803857200600101; CHURCHMAN CW, 1965, MANAGE SCI, V11, pB69; CORWIN RG, 1972, AM SOCIOL REV, V37, P441, DOI 10.2307/2093183; DOWNS GW, 1976, ADMIN SCI QUART, V21, P700, DOI 10.2307/2391725; EVAN WM, 1967, J BUS, V40, P519, DOI 10.1086/295016; EVAN WM, 1966, HUM ORGAN, V25, P51, DOI 10.17730/humo.25.1.v7354t3822136580; HAGE J, 1967, AM J SOCIOL, V72, P503, DOI 10.1086/224380; HAGE J, 1973, ADMIN SCI QUART, V18, P279, DOI 10.2307/2391664; KALUZNY AD, 1972, MAY U N CAR HLTH SER; March J. G., 1958, ORGANIZATIONS; MOHR LB, 1969, AM POLIT SCI REV, V63, P111, DOI 10.2307/1954288; PALUMBO DJ, 1969, PUBLIC ADMIN REV, V29, P237, DOI 10.2307/973538; PONDY LR, 1972, ADMIN SCI QUART, V17, P408; SAPOLSKY HM, 1967, J BUS, V40, P497, DOI 10.1086/295014; Selznick P, 1957, LEADERSHIP ADM; Thompson J. P., 1967, ORG ACTION; WEICK KE, 1976, ADMIN SCI QUART, V21, P1, DOI 10.2307/2391875; WEICK KE, 1974, ACAD MANAGE J, V17, P487, DOI 10.2307/254652; ZALD MN, 1963, ADM SCI Q, V7, P214; Zaltman G., 1973, INNOVATIONS ORG	27	526	538	5	45	ACAD MANAGEMENT	ADA	PO BOX 39 300 SOUTH UNION STREET, ADA, OH 45810-0039	0001-4273			ACAD MANAGE J	Acad. Manage. J.		1978	21	2					193	210		10.2307/255754				18	Business; Management	Business & Economics	FB777	WOS:A1978FB77700002					2019-01-18	
J	HAYASHI, K				HAYASHI, K			CORPORATE-PLANNING PRACTICES IN JAPANESE MULTINATIONALS	ACADEMY OF MANAGEMENT JOURNAL			English	Article										HAYASHI, K (reprint author), MCMASTER UNIV,HAMILTON L8S 4L8,ONTARIO,CANADA.						ACKOFF RL, 1970, CONCEPT CORPORATE PL, P4; Aharoni Y., 1971, Q REV ECON BUS, VV.II, P27; BRANCH MC, 1966, PLANNING ASPECTS APP, P234; DRUCKER PF, 1959, MANAGE SCI, V5, P238, DOI 10.1287/mnsc.5.3.238; HALL E, 1959, SILENT LANGUAGE, P83; HAZAMA H, 1971, NIPPONTEKI KEIEI, P74; KOHNO T, 1967, CHOKI KEIEI KEIKAKU, pCH14; KOHNO T, 1966, KEIEI KEIKAKU NO RIR; NAKANE C, 1967, TATESHAKAI NO NINGEN, P76; NAKANE C, 1970, JAPANESE SOC, P80; NODA K, 1969, GENDAI KEIEISHI, P231; PARSONS T, 1952, SOCIAL SYSTEM, P549; Ramsden P., 1973, TOP TEAM PLANNING; SETHI SP, 1975, JAPANESE BUSINESS SO, P51; STEINER GA, 1966, MULTINATIONAL CORPOR, P63; STEINER GA, 1969, TOP MANAGEMENT PLANN, P713; TSUDA M, 1973, SHUDANSHUGI KEIEI NO; WEBER M, 1949, METHODOLOGY SOCIAL S; YAMASHIRO A, 1967, RINGITEKI KEIEI RING, P117; YOSHINO MY, 1968, JAPANS MANAGERIAL SY	20	6	6	0	1	ACAD MANAGEMENT	ADA	PO BOX 39 300 SOUTH UNION STREET, ADA, OH 45810-0039	0001-4273			ACAD MANAGE J	Acad. Manage. J.		1978	21	2					211	226		10.2307/255755				16	Business; Management	Business & Economics	FB777	WOS:A1978FB77700003					2019-01-18	
J	SATHE, V				SATHE, V			INSTITUTIONAL VERSUS QUESTIONNAIRE MEASURES OF ORGANIZATIONAL-STRUCTURE	ACADEMY OF MANAGEMENT JOURNAL			English	Article										SATHE, V (reprint author), HARVARD UNIV,GRAD SCH BUSINESS ADM,BOSTON,MA 02115, USA.						Blau P, 1970, POWER ORG; Blau P.M., 1962, FORMAL ORG COMP APPR; Blau P. M., 1971, STRUCTURE ORG; BLAU PM, 1968, AM J SOCIOL, V73, P453, DOI 10.1086/224506; CAMPBELL DT, 1959, PSYCHOL BULL, V56, P81, DOI 10.1037/h0046016; Chandler A. D., 1962, STRATEGY STRUCTURE; CHILD J, 1972, ADMIN SCI QUART, V17, P163, DOI 10.2307/2393951; CHILD J, 1974, ADMIN SCI QUART, V19, P247; DONALDSON L, 1975, ADMIN SCI QUART, V20, P453, DOI 10.2307/2392003; DUNCAN RB, 1974, COMMUNICATION; DUNCAN RB, 1971, THESIS YALE U; HAGE J, 1965, ADMIN SCI QUART, V10, P289, DOI 10.2307/2391470; HAGE J, 1967, ADMIN SCI QUART, V12, P72, DOI 10.2307/2391213; HAGE J, 1967, AM SOCIOL REV, V32, P118; Hall R. H., 1972, ORG STRUCTURE PROCES; HALL RH, 1963, AM J SOCIOL, V69, P32, DOI 10.1086/223508; HALL RH, 1962, ADMIN SCI QUART, V7, P295, DOI 10.2307/2390944; HININGS CR, 1971, SOCIOLOGY, V5, P83, DOI 10.1177/003803857100500106; HOLDAWAY EA, 1975, ADMIN SCI QUART, V20, P37, DOI 10.2307/2392122; Lawrence P. R., 1967, ORG ENV; LYNCH BP, 1974, ADMIN SCI QUART, V19, P338, DOI 10.2307/2391976; MANSFIELD R, 1973, ADMIN SCI QUART, V18, P477, DOI 10.2307/2392200; PENNINGS J, 1973, AM J SOCIOL, V79, P686, DOI 10.1086/225590; PERROW C, 1967, AM SOCIOL REV, V32, P194, DOI 10.2307/2091811; PERROW C, 1970, TECHNOLOGY STRUCTURE; PUGH DS, 1969, ADMIN SCI QUART, V14, P91, DOI 10.2307/2391366; PUGH DS, 1968, ADMIN SCI QUART, V13, P65, DOI 10.2307/2391262; REIMANN BC, 1973, ADMIN SCI QUART, V18, P462, DOI 10.2307/2392199; SAMUEL Y, 1970, ADMIN SCI QUART, V15, P216, DOI 10.2307/2391492; SATHE V, 1974, THESIS OHIO STATE U; TAUSKY C, 1967, AM SOCIOL REV, V32, P118; Thompson J.D., 1967, ORG ACTION SOCIAL SC; Weber Maximilian Carl, 1947, THEORY SOCIAL EC ORG	33	43	46	0	24	ACAD MANAGEMENT	ADA	PO BOX 39 300 SOUTH UNION STREET, ADA, OH 45810-0039	0001-4273			ACAD MANAGE J	Acad. Manage. J.		1978	21	2					227	238		10.2307/255756				12	Business; Management	Business & Economics	FB777	WOS:A1978FB77700004					2019-01-18	
J	KIDRON, A				KIDRON, A			WORK VALUES AND ORGANIZATIONAL COMMITMENT	ACADEMY OF MANAGEMENT JOURNAL			English	Article									ISRAEL INST PRODUCTIV,DEPT BEHAV SCI,HAIFA,ISRAEL							ALUTTO JA, 1973, SOC FORCES, V51, P448, DOI 10.2307/2576690; BLOOD MR, 1969, J APPL PSYCHOL, V53, P456, DOI 10.1037/h0028653; BUCHANAN B, 1974, ADMIN SCI QUART, V19, P533; CONNOR EP, 1975, ACADEMY MANAGEMENT J, V18, P550; DUBIN R, 1956, SOC PROBL, V3, P131, DOI 10.1525/sp.1956.3.3.03a00010; DUBIN R, 1975, ADMIN SCI QUART, V20, P411, DOI 10.2307/2392000; Dubin Robert, 1972, J VOCAT BEHAV, V2, P133; ENGLAND GW, 1974, J APPL PSYCHOL, V59, P411, DOI 10.1037/h0037320; ETZIONI A, 1961, COMP ANALYSIS COMPLE; HALL DT, 1970, ADMIN SCI QUART, V15, P176, DOI 10.2307/2391488; HALL DT, 1971, HUMAN RELATIONS, V24, P397; HALL T, 1972, ADM SCI Q, V17, P340; HREBINIAK G, 1972, ADM SCI Q, V17, P555; JAMAL M, 1974, 34TH AC MAN P ANN M; KIDRON AG, 1976, THESIS OHIO STATE U; LYKKEN DT, 1968, PSYCHOL BULL, V70, P151, DOI 10.1037/h0026141; MAURER JG, 1968, ACAD MANAGE J, V11, P329, DOI 10.2307/254757; MERRENS MR, 1975, J APPL PSYCHOL, V60, P125, DOI 10.1037/h0076297; MIRELS HL, 1971, J CONSULT CLIN PSYCH, V36, P40, DOI 10.1037/h0030477; ORZACK LH, 1959, SOC PROBL, V7, P125, DOI 10.1525/sp.1959.7.2.03a00040; PORTER LW, 1974, J APPL PSYCHOL, V59, P603, DOI 10.1037/h0037335; Weber M., 1958, PROTESTANT ETHIC SPI; Weber Maximilian Carl, 1947, THEORY SOCIAL EC ORG; Werkmeister W., 1967, MAN HIS VALUES	24	99	101	0	15	ACAD MANAGEMENT	ADA	PO BOX 39 300 SOUTH UNION STREET, ADA, OH 45810-0039	0001-4273			ACAD MANAGE J	Acad. Manage. J.		1978	21	2					239	247		10.2307/255757				9	Business; Management	Business & Economics	FB777	WOS:A1978FB77700005	10308606				2019-01-18	
J	NEAR, JP; RICE, RW; HUNT, RG				NEAR, JP; RICE, RW; HUNT, RG			WORK AND EXTRA-WORK CORRELATES OF LIFE AND JOB SATISFACTION	ACADEMY OF MANAGEMENT JOURNAL			English	Article									SUNY BUFFALO,DEPT PSYCHOL,BUFFALO,NY 14214; SUNY BUFFALO,SURVEY RES CTR,BUFFALO,NY 14214	NEAR, JP (reprint author), SUNY BUFFALO,DEPT SOCIOL,BUFFALO,NY 14214, USA.						ANDREWS FM, 1974, SOC INDIC RES, V1, P1, DOI 10.1007/BF00286419; ANDREWS FM, 1969, MULTIPLE CLASSIFICAT; BASS BM, 1976, AM PSYCHOL, V31, P158, DOI 10.1037/0003-066X.31.2.158; Biderman A. D., 1976, MEASURING WORK QUALI; BLOOD MR, 1967, J APPL PSYCHOL, V51, P284, DOI 10.1037/h0024683; Campbell A., 1976, QUALITY AM LIFE PERC; DUNCAN OD, 1961, OCCUPATIONS SOCIAL S, P109; Harris CW, 1963, PROBLEMS MEASURING C; HERZBERG F, 1966, J APPLIED PSYCHOLOGY, V50, P185; HULIN CL, 1969, J APPL PSYCHOL, V53, P279, DOI 10.1037/h0027853; HULIN CL, 1968, J APPLIED PSYCHOL, V69, P41; HULIN CL, 1973, IND LABOR RELATIONS, V26, P853; HUNT RG, 1977, J SUPPLEMENT ABSTRAC, V7, P55; Locke E. A., 1976, HDB IND ORG PSYCHOL, P1297; NIE NH, 1975, STATISTICAL PACKAGE; PAYTONMIYAZAKI M, 1976, MEASURING WORK QUALI, P125; Quinn R. P., 1974, 1972 73 QUALITY EMPL; QUINN RP, 1971, 29160001 FIN REP; ROBINSON JP, 1969, MEASURES OCCUPATIONA; RUH RA, 1975, ACAD MANAGE J, V18, P300, DOI 10.2307/255532; Schuler R., 1973, INDUSTRIAL LABOR REL, V26, P851, DOI 10.1177/001979397302600209; SEASHORE SE, 1976, DEC UNESCO C QUAL LI; Seashore SE, 1976, MEASURING WORK QUALI, P89; SHEPARD JM, 1970, IND LABOR RELAT REV, V23, P207, DOI 10.2307/2521792; SHEPARD JM, 1973, IND LABOR RELATIONS, V26, P856; *SUNY BUFF SURV RE, 1975, ER NIAG AR SURV; VROOM VH, 1964, WORK MOTIVATION; WANOUS JP, 1974, J APPL PSYCHOL, V59, P616, DOI 10.1037/h0037337; WILD R, 1972, J APPL PSYCHOL, V56, P106, DOI 10.1037/h0032666	29	91	92	1	14	ACAD MANAGEMENT	ADA	PO BOX 39 300 SOUTH UNION STREET, ADA, OH 45810-0039	0001-4273			ACAD MANAGE J	Acad. Manage. J.		1978	21	2					248	264		10.2307/255758				17	Business; Management	Business & Economics	FB777	WOS:A1978FB77700006					2019-01-18	
J	WEAVER, CN				WEAVER, CN			SEX-DIFFERENCES IN DETERMINANTS OF JOB SATISFACTION	ACADEMY OF MANAGEMENT JOURNAL			English	Article										WEAVER, CN (reprint author), ST MARYS UNIV,SAN ANTONIO,TX 78228, USA.						ALTIMUS CA, 1973, ACAD MANAGE J, V16, P53, DOI 10.2307/255042; Argyris C., 1957, PERSONALITY ORG; AXELSON LJ, 1963, MARRIAGE FAM LIVING, V25, P189, DOI 10.2307/349181; Blauner Robert, 1964, ALIENATION FREEDOM F; BLOOD RO, 1958, SOC FORCES, V36, P347, DOI 10.2307/2573974; Campbell A., 1976, QUALITY AM LIFE; COHEN J, 1968, PSYCHOL BULL, V70, P426, DOI 10.1037/h0026714; DARLINGTON RB, 1968, PSYCHOL BULL, V69, P161, DOI 10.1037/h0025471; DAVIS JA, 1974, NATIONAL DATA PROGRA; DAVIS JA, 1972, NATIONAL DATA PROGRA; DAVIS JA, 1973, NATIONAL DATA PROGRA; GAERTNER GH, 1975, 29 NAT OP RES CTR SO; GLENN ND, 1977, J MARRIAGE FAM, V39, P331, DOI 10.2307/351128; GLENN ND, 1977, J APPL PSYCHOL, V62, P189, DOI 10.1037/0021-9010.62.2.189; GLENN ND, 1975, SURVEY DATA TREND AN; Gurin G., 1960, AM VIEW THEIR MENTAL; HERR DM, 1948, SOCIAL FORCES, V36, P341; Herzberg F., 1957, JOB ATTITUDES REV RE; HOFFMAN LW, 1974, WORKING MOTHERS; HULIN CL, 1964, J APPL PSYCHOL, V48, P88, DOI 10.1037/h0040811; Kornhauser A, 1965, MENTAL HLTH IND WORK; Lawler E. E, 1971, PAY ORG EFFECTIVENES; LAWLER EE, 1963, IND RELAT, V3, P41; LEVITIN T, 1971, AM BEHAV SCI, V15, P237, DOI 10.1177/000276427101500207; ORDEN SR, 1969, AM J SOCIOL, V74, P392, DOI 10.1086/224664; PORTER LW, 1965, J APPLIED PSYCHOLOGY, V64, P23; QUINN R, 1973, MONTHLY LABOR REV, V0096; QUINN RP, 1974, JOB SATISFACTION IS; SALEH SD, 1969, TRENDS JOB SATISFACT; *US DEP LAB WOM BU, 1976, EARN GAP BETW WOM ME; WALKER C., 1952, MAN ASSEMBLY LINE; WEAVER CN, 1977, PERS PSYCHOL, V30, P437, DOI 10.1111/j.1744-6570.1977.tb00436.x; WEAVER CN, 1975, J APPL PSYCHOL, V60, P438, DOI 10.1037/h0076907; WEAVER CN, J APPLIED PSYCHOLOGY; WILENSKY HL, 1964, MAN WORLD WORK	35	43	43	1	8	ACAD MANAGEMENT	ADA	PO BOX 39 300 SOUTH UNION STREET, ADA, OH 45810-0039	0001-4273			ACAD MANAGE J	Acad. Manage. J.		1978	21	2					265	274		10.2307/255759				10	Business; Management	Business & Economics	FB777	WOS:A1978FB77700007					2019-01-18	
J	FREEDMAN, RD; STUMPF, SA				FREEDMAN, RD; STUMPF, SA			WHAT CAN ONE LEARN FROM LEARNING STYLE INVENTORY	ACADEMY OF MANAGEMENT JOURNAL			English	Article										FREEDMAN, RD (reprint author), NYU,GRAD SCH BUSINESS ADM,NEW YORK,NY 10003, USA.						CHESSER R, 1976, 36TH AC MAN P ANN M, P29; Cohen J., 1975, APPLIED MULTIPLE REG; COHEN J, 1965, HDB CLIN PSYCHOLOGY; HALL D, 1976, EXPERIENCES MANAGEME; HARMAN HH, 1967, MODERN FACTOR ANALYS; Kolb D. A., 1974, ORG PSYCHOL BOOK REA, P27; KOLB DA, 1971, MIT53571 SLOAN SCH W; KOLB DA, 1974, ORG PSYCHOLOGY EXPT; LEWICKI R, 1976, INSTRUCTORS MANUAL E; NIE NH, 1975, STATISTICAL PACKAGE; Nunnally JC, 1967, PSYCHOMETRIC THEORY	11	65	65	0	6	ACAD MANAGEMENT	ADA	PO BOX 39 300 SOUTH UNION STREET, ADA, OH 45810-0039	0001-4273			ACAD MANAGE J	Acad. Manage. J.		1978	21	2					275	282		10.2307/255760				8	Business; Management	Business & Economics	FB777	WOS:A1978FB77700008					2019-01-18	
J	MINER, JB				MINER, JB			MINER SENTENCE COMPLETION SCALE - REAPPRAISAL	ACADEMY OF MANAGEMENT JOURNAL			English	Article										MINER, JB (reprint author), GEORGIA STATE UNIV,ATLANTA,GA 30303, USA.						BRIEF AP, 1977, ACAD MANAGE J, V20, P635, DOI 10.2307/255362; BRIEF AP, 1976, AM I DECISION SCI P, P171; ENGLAND GW, 1976, MANAGER HIS VALUES I; FREDERICKSEN N, 1972, PREDICTION ORG BEHAV; GHISELLI EE, 1971, EXPLORATIONS MANAGER; HECKHAUSEN H, 1967, ANATOMY ACHIEVEMENT; LARDENT CL, 1977, ASSESSMENT MOTIVATIO; McClelland D. C., 1975, POWER INNER EXPERIEN; MINER JB, 1973, HARVARD BUS REV, V51, P146; MINER JB, 1965, STUDIES MANAGEMENT E; MINER JB, 1977, SCORING GUIDE MINE S; MINER JB, 1977, MOTIVATION MANAGE 10	12	21	21	0	5	ACAD MANAGEMENT	ADA	PO BOX 39 300 SOUTH UNION STREET, ADA, OH 45810-0039	0001-4273			ACAD MANAGE J	Acad. Manage. J.		1978	21	2					283	294		10.2307/255761				12	Business; Management	Business & Economics	FB777	WOS:A1978FB77700009					2019-01-18	
J	ALLEN, SA				ALLEN, SA			ORGANIZATIONAL CHOICES AND GENERAL MANAGEMENT INFLUENCE NETWORKS IN DIVISIONALIZED COMPANIES	ACADEMY OF MANAGEMENT JOURNAL			English	Article										ALLEN, SA (reprint author), MANAGEMENT DEV INST,LAUSANNE,SWITZERLAND.						ALLEN SA, 1976, TAXONOMY ORG CHOICES; ALLEN SA, BEHAVIORAL DECISIONS; ANSOFF HI, 1971, MANAGE SCI B-APPL, V17, pB717; BERG N, 1971, CORPORATE ROLE DIVER; Bower J. L, 1970, MANAGING RESOURCE AL; Chandler A. D., 1962, STRATEGY STRUCTURE; Channon D., 1973, STRATEGY STRUCTURE B; DALTON GW, 1968, DISTRIBUTION AUTHORI; DAVILA HV, 1974, J MEMBRANE BIOL, V15, P29, DOI 10.1007/BF01870080; DEARDEN J, 1973, COST ACCOUNTING FINA; DRUCKER P, 1972, CONCEPT CORPORATION; Drucker P. E., 1974, MANAGEMENT TASKS RES; DUNCAN OD, 1966, AM J SOCIOL, V72, P1, DOI 10.1086/224256; EMERSON RM, 1962, AM SOCIOL REV, V27, P31, DOI 10.2307/2089716; Franko Lawrence G, 1976, EUROPEAN MULTINATION; GALBRAITH J, 1976, COLUMBIA J WORLD BUS, V11, P100; GALBRAITH JR, 1973, DESIGNING COMPLEX OR; GREINER LE, 1972, HARVARD BUS REV, V50, P37; KHANDWALLA PN, 1973, ACAD MANAGE J, V16, P481, DOI 10.2307/255008; Kingdon D.R., 1973, MATRIX ORG; LORSCH JW, 1973, MANAGING DIVERSITY I; March J. G., 1958, ORGANIZATIONS; MCKELVEY B, 1975, ADMIN SCI QUART, V20, P509, DOI 10.2307/2392019; MINTZBERG H, IN PRESS; Perrow C., 1974, ORGAN DYN, V3, P31; PUGH DS, 1968, ADMIN SCI QUART, V13, P65, DOI 10.2307/2391262; Rumelt R. P., 1974, STRATEGY STRUCTURE E; SALANCIK GR, 1977, ORGAN DYN, V5, P3, DOI 10.1016/0090-2616(77)90028-6; SAYLES LR, 1976, ORGAN DYN, V5, P2, DOI 10.1016/0090-2616(76)90051-6; SCOTT BR, 1973, HARVARD BUS REV, V51, P133; Siegel S., 1956, NONPARAMETRIC STATIS; SNEATH P, 1973, NUMERICAL TAXONOMY; Stopford John M., 1972, MANAGING MULTINATION; TANNENBAUM AS, 1968, CONTROL ORG; Thompson J. P., 1967, ORG ACTION; VANCIL RF, 1971, 4TH ANN WORKSH PLANN; Williamson O. E., 1970, CORPORATE CONTROL BU; Wolff Harold, 1964, HARVARD BUS REV, V42, P164; Wrigley L, 1970, THESIS HARVARD BUSIN; 1976, DESIGNING INT CORPOR	40	14	14	0	2	ACAD MANAGEMENT	ADA	PO BOX 39 300 SOUTH UNION STREET, ADA, OH 45810-0039	0001-4273			ACAD MANAGE J	Acad. Manage. J.		1978	21	3					341	365		10.2307/255719				25	Business; Management	Business & Economics	FP125	WOS:A1978FP12500001					2019-01-18	
J	FOTTLER, MD				FOTTLER, MD			RETENTION OF HARD-CORE UNEMPLOYED	ACADEMY OF MANAGEMENT JOURNAL			English	Article										FOTTLER, MD (reprint author), UNIV ALABAMA, GRAD SCH BUSINESS, UNIVERSITY, AL 35486 USA.						BONNEY NL, 1971, THESIS U CHICAGO; DAVIS OA, 1973, PUBLIC POLICY, V21, P235; DOERINGER PB, 1969, PROGRAMS EMPLOY DISA, P245; FOTTLER MD, 1977, CALIF MANAGE REV, V19, P71, DOI 10.2307/41164713; FOTTLER MD, 1974, RELAT IND-IND RELAT, V29, P685, DOI 10.7202/028550ar; FOTTLER MD, 1977, P MIDWEST REGIONAL C, P102; FREEBERG NE, 1976, J APPL PSYCHOL, V61, P537, DOI 10.1037/0021-9010.61.5.537; FRIEDLANDER F, 1971, J APPL PSYCHOL, V55, P287, DOI 10.1037/h0031532; GOLDSTEIN IL, 1974, TRAINING PROGRAM DEV; GOODMAN P, 1976, J APPL PSYCHOL, V61, P12, DOI 10.1037/0021-9010.61.1.12; GOODMAN PS, 1969, IND RELAT, V9, P54, DOI 10.1111/j.1468-232X.1969.tb00492.x; GOODMAN PS, 1973, J APPL PSYCHOL, V58, P23, DOI 10.1037/h0035403; GREENBERG DH, 1968, EMPLOYERS MANPOWER T; GURIN G, 1968, INNER CITY YOUTH JOB; HENEMAN HG, 1972, PSYCHOL BULL, V78, P1, DOI 10.1037/h0033093; JANGER AR, 1972, EMPLOYING DISADVANTA; JANGER AR, 1970, MANAGING PROGRAMS EM; JEDEL MJ, 1976, ACAD MANAGE J, V19, P277, DOI 10.2307/255777; KIRCHNER W, 1972, TRAIN DEV J, V26, P34; LEWIS MV, 1973, INDUSTRIAL LABOR REL, V26, P842; LIPSCOMB DM, 1973, CLIN PEDIATR, V12, P125, DOI 10.1177/000992287301200301; LIPSKY DB, 1971, Q REV ECON BUS, V11, P41; MANGUM GL, 1971, REV IND RELATIONS RE, V2, P61; MORRISON DG, 1972, J AM STAT ASSOC, V67, P68, DOI 10.2307/2284703; Purcell T. V., 1972, BLACKS IND WORLD ISS; PURCELL TB, 1970, P IND RELATIONS RES, P66; QUINN R, 1970, TURNOVER TRAINING SO; SALIPANTE P, 1976, J APPL PSYCHOL, V61, P1; SEDGWICKS R, 1972, PERS J, V50, P948; SHLENSKY B, 1970, THESIS MASSACHUSETTS; TRIANDIS HC, 1975, J APPL PSYCHOL, V60, P44, DOI 10.1037/h0076349; WOOL H, 1973, MON LABOR REV, V96, P41; 1970, MANPOWER REPORT PRES; 1976, BUSINESS WEEK   1213, P63; 1977, EMPLOYMENT TRAINING	35	0	0	2	7	ACAD MANAGEMENT	BRIARCLIFF MANOR	PACE UNIV, PO BOX 3020, 235 ELM RD, BRIARCLIFF MANOR, NY 10510-8020 USA	0001-4273	1948-0989		ACAD MANAGE J	Acad. Manage. J.		1978	21	3					366	379		10.2307/255720				14	Business; Management	Business & Economics	FP125	WOS:A1978FP12500002	10246523				2019-01-18	
J	STEVENS, JM; BEYER, JM; TRICE, HM				STEVENS, JM; BEYER, JM; TRICE, HM			ASSESSING PERSONAL, ROLE, AND ORGANIZATIONAL PREDICTORS OF MANAGERIAL COMMITMENT	ACADEMY OF MANAGEMENT JOURNAL			English	Article									SUNY BUFFALO,SCH MANAGEMENT,BUFFALO,NY 14214; CORNELL UNIV,NEW YORK STATE SCH IND & LABOR RELAT,ITHACA,NY 14853	STEVENS, JM (reprint author), PENN STATE UNIV,INST PUBL ADM,UNIVERSITY PK,PA 16803, USA.						ALUTTO JA, 1973, SOC FORCES, V51, P448, DOI 10.2307/2576690; ALUTTO JA, 1975, 35TH ANN M AC MAN NE; BALDRIDGE JV, 1975, ADMIN SCI QUART, V20, P165, DOI 10.2307/2391692; BECKER HS, 1956, AM SOCIOL REV, V21, P341, DOI 10.2307/2089290; BECKER HS, 1960, AM J SOCIOL, V66, P32, DOI 10.1086/222820; BEYER JM, 1976, ADMIN SCI QUART, V21, P104, DOI 10.2307/2391882; BEYER JM, 1977, APPROPRIATE APPLICAT; Blau P., 1964, EXCHANGE POWER SOCIA; Blau P. M., 1974, NATURE ORG; BUCHANAN B, 1974, ADMIN SCI QUART, V19, P533; DUBIN R, 1975, ADMIN SCI QUART, V20, P411, DOI 10.2307/2392000; FORM W, 1968, INT ENCYCL SOC SCI, V11, P245; HAGE J, 1973, ADMIN SCI QUART, V18, P279, DOI 10.2307/2391664; HOMANS GC, 1961, SOCIAL BEHAVIOR ITS; HREBINIAK LG, 1972, ADMIN SCI QUART, V17, P555, DOI 10.2307/2393833; Hughes E.C., 1958, MEN THEIR WORK; IVANCEVICH JM, 1975, ADMIN SCI QUART, V20, P272, DOI 10.2307/2391699; Jacobs T.O., 1971, LEADERSHIP EXCHANGE; Kahn Robert L., 1964, ORG STRESS STUDIES R; KANTER RM, 1968, AM SOCIOL REV, V33, P499, DOI 10.2307/2092438; KATZ D, 1966, SOCIAL PSYCHOLOGY; KOCHAN TA, 1975, ADMIN SCI QUART, V20, P10, DOI 10.2307/2392120; KOCHAN TA, 1975, ADMIN SCI QUART, V20, P434, DOI 10.2307/2392002; LEE SM, 1971, ACAD MANAGE J, V14, P213, DOI 10.2307/255308; LODAHL TM, 1965, J APPL PSYCHOL, V49, P24, DOI 10.1037/h0021692; March J. G., 1958, ORGANIZATIONS; OUCHI WG, 1974, ADM SCI Q, V19, P356; Patchen M., 1970, PARTICIPATION ACHIEV; PORTER LW, 1974, J APPL PSYCHOL, V59, P603, DOI 10.1037/h0037335; RICE LE, 1973, ADMIN SCI QUART, V18, P56, DOI 10.2307/2391927; RITZER G, 1969, SOC FORCES, V47, P475, DOI 10.2307/2574537; ROTONDI T, 1975, ACAD MANAGE J, V18, P892, DOI 10.2307/255389; SCHOENHERR RA, 1974, AM SOCIOL REV, V39, P407, DOI 10.2307/2094298; SHELDON ME, 1971, ADMIN SCI QUART, V16, P143, DOI 10.2307/2391824; STANLEY DT, 1972, MANAGING LOCAL GOVER; STEERS RM, 1977, ADMIN SCI QUART, V22, P46, DOI 10.2307/2391745; STEVENS JM, 1977, PERSONAL ROLE ORG PR; STEVENS JM, 1976, THESIS STATE U NEW Y; THIBAUT JW, 1959, SOCIAL PSYCHOLOGY GR; WEINER Y, 1975, 35TH ANN M AC MAN NE	40	211	213	0	17	ACAD MANAGEMENT	ADA	PO BOX 39 300 SOUTH UNION STREET, ADA, OH 45810-0039	0001-4273			ACAD MANAGE J	Acad. Manage. J.		1978	21	3					380	396		10.2307/255721				17	Business; Management	Business & Economics	FP125	WOS:A1978FP12500003	10246524				2019-01-18	
J	FREEDMAN, SM				FREEDMAN, SM			SOME DETERMINANTS OF COMPENSATION DECISIONS	ACADEMY OF MANAGEMENT JOURNAL			English	Article										FREEDMAN, SM (reprint author), UNIV HOUSTON,HOUSTON,TX 77004, USA.						ADAMS JS, 1963, J ABNORM PSYCHOL, V67, P422, DOI 10.1037/h0040968; ADAMS JS, 1965, ADV EXP SOC PSYCHOL, V2, P267; ADAMS JS, 1976, ADV EXPT SOCIAL PSYC, V9, P43, DOI DOI 10.1016/S0065-2601(08)60058-1; AUSTIN W, 1974, J EXP SOC PSYCHOL, V10, P528, DOI 10.1016/0022-1031(74)90077-8; AUSTIN W, 1975, SOCIOMETRY, V38, P474, DOI 10.2307/2786362; BREHM JW, 1966, THEORY PSYCHOLOGICAL; CRAMER E, 1967, MULTIVARIATE ANAL VA; DYER L, 1976, PERS PSYCHOL, V29, P233, DOI 10.1111/j.1744-6570.1976.tb00411.x; GOODMAN PS, 1971, ADMIN SCI QUART, V16, P271, DOI 10.2307/2391900; GOODMAN PS, 1975, J APPL PSYCHOL, V60, P372, DOI 10.1037/h0076633; Lerner M. J., 1970, ALTRUISM HELP BEHAV, P205; Leventhal G. S., 1976, ADV EXPT SOCIAL PSYC, P92; LEVENTHAL GS, 1972, J PERS SOC PSYCHOL, V23, P88, DOI 10.1037/h0032877; LEVENTHAL SG, 1973, J PERSONALITY SOCIAL, V25, P75; WALSTER E, 1973, J PERS SOC PSYCHOL, V25, P151, DOI 10.1037/h0033967; WEICK KE, 1968, ORGAN BEHAV HUM PERF, V3, P400, DOI 10.1016/0030-5073(68)90017-2	16	22	22	0	5	ACAD MANAGEMENT	ADA	PO BOX 39 300 SOUTH UNION STREET, ADA, OH 45810-0039	0001-4273			ACAD MANAGE J	Acad. Manage. J.		1978	21	3					397	409		10.2307/255722				13	Business; Management	Business & Economics	FP125	WOS:A1978FP12500004	10246525				2019-01-18	
J	PIERCE, JL; DUNHAM, RB				PIERCE, JL; DUNHAM, RB			EMPIRICAL DEMONSTRATION OF CONVERGENCE OF COMMON MACRO-ORGANIZATION AND MICRO-ORGANIZATION MEASURES	ACADEMY OF MANAGEMENT JOURNAL			English	Article									UNIV WISCONSIN, MADISON, WI 53706 USA	PIERCE, JL (reprint author), UNIV MINNESOTA, DULUTH, MN 55812 USA.						BLAU PM, 1957, AM J SOCIOL, V63, P58, DOI 10.1086/222134; CAMPBELL DT, 1959, PSYCHOL BULL, V56, P81, DOI 10.1037/h0046016; CRONBACH LJ, 1951, PSYCHOMETRIKA, V16, P297; DAVIS JA, 1961, AM SOCIOL REV, V26, P215, DOI 10.2307/2089857; HACKMAN JR, 1975, J APPL PSYCHOL, V60, P159, DOI 10.1037/h0076546; HAGE J, 1967, ADMIN SCI QUART, V12, P72, DOI 10.2307/2391213; HAGE J, 1969, ADMIN SCI QUART, V14, P366, DOI 10.2307/2391132; HALL RH, 1962, ADMIN SCI QUART, V7, P295, DOI 10.2307/2390944; HICKSON DJ, 1969, ADMIN SCI QUART, V14, P378, DOI 10.2307/2391134; LITWAK E, 1961, AM J SOCIOL, V67, P177, DOI 10.1086/223083; PIERCE JL, 1976, ACAD MANAGE REV, V1, P83, DOI DOI 10.5465/AMR.1976.4396611; SCHULER RS, 1973, THESIS MICHIGAN STAT; SIMS HP, 1976, ACAD MANAGE J, V19, P195, DOI 10.2307/255772; Turner A.N., 1965, IND JOBS WORKER INVE; VANDEVEN AH, 1974, ADMIN SCI QUART, V19, P183; Woodward J., 1965, IND ORG THEORY PRACT	16	20	20	0	19	ACAD MANAGEMENT	BRIARCLIFF MANOR	PACE UNIV, PO BOX 3020, 235 ELM RD, BRIARCLIFF MANOR, NY 10510-8020 USA	0001-4273			ACAD MANAGE J	Acad. Manage. J.		1978	21	3					410	418		10.2307/255723				9	Business; Management	Business & Economics	FP125	WOS:A1978FP12500005					2019-01-18	
J	MCFILLEN, JM				MCFILLEN, JM			SUPERVISORY POWER AS AN INFLUENCE IN SUPERVISOR-SUBORDINATE RELATIONS	ACADEMY OF MANAGEMENT JOURNAL			English	Article										MCFILLEN, JM (reprint author), OHIO STATE UNIV,COLUMBUS,OH 43210, USA.						BANKART CP, 1970, REPRESENTATIVE RESEA, V1, P1; FARRIS GF, 1969, J APPL PSYCHOL, V53, P490, DOI 10.1037/h0028666; GOODSTAD.B, 1970, J APPL PSYCHOL, V54, P201, DOI 10.1037/h0029265; Hastorf A. H., 1970, PERSON PERCEPTION; HEIDER F, 1958, PSYCHOLOGY INTERPERS; Jones E. E, 1972, ATTRIBUTION PERCEIVI; JONES EE, 1970, ADV EXPT SOCIAL PSYC, V5; Kelley H, 1967, NEBRASKA S MOTIVATIO; KIPNIS D, 1969, J APPLIED PSYCHOLOGY, V53, P430; KRUGLANSKI AW, 1970, J EXP SOC PSYCHOL, V6, P214, DOI 10.1016/0022-1031(70)90088-0; LANZETTA JT, 1969, J PERS SOC PSYCHOL, V11, P245, DOI 10.1037/h0027044; ROTHBART M, 1968, J PERS SOC PSYCHOL, V9, P353, DOI 10.1037/h0026087; STRICKLAND LH, 1958, J PERS, V26, P200, DOI 10.1111/j.1467-6494.1958.tb01580.x; WEISS DJ, 1971, J COUNS PSYCHOL, V18, P85	14	12	12	2	4	ACAD MANAGEMENT	ADA	PO BOX 39 300 SOUTH UNION STREET, ADA, OH 45810-0039	0001-4273			ACAD MANAGE J	Acad. Manage. J.		1978	21	3					419	433		10.2307/255724				15	Business; Management	Business & Economics	FP125	WOS:A1978FP12500006	10246526				2019-01-18	
J	GOULD, S; HAWKINS, BL				GOULD, S; HAWKINS, BL			ORGANIZATIONAL CAREER STAGE AS A MODERATOR OF SATISFACTION-PERFORMANCE RELATIONSHIP	ACADEMY OF MANAGEMENT JOURNAL			English	Article										GOULD, S (reprint author), UNIV TEXAS,DIV MANAGEMENT,SAN ANTONIO,TX 78284, USA.						BELCHER D. W., 1974, COMPENSATION ADM; BERLEW DE, 1966, ADM SCI Q, V11, P207, DOI DOI 10.2307/2391245; Bray D. W., 1974, FORMATIVE YEARS BUSI; BRAYFIELD AH, 1955, PSYCHOL BULL, V52, P396, DOI 10.1037/h0045899; CHERRINGTON DJ, 1971, J APPL PSYCHOL, V55, P531, DOI 10.1037/h0032041; DUNNETTE MD, 1973, PERSONNEL, V50, P25; EWEN RB, 1971, J APPLIED PSYCHOLOGY, V55, P259; FELDMAN DC, 1976, ADMIN SCI QUART, V21, P433, DOI 10.2307/2391853; GLASER BG, 1964, ORG SCI THEIR PROFES; HACKMAN JR, 1971, J APPL PSYCHOL, V55, P259, DOI 10.1037/h0031152; Hall D., 1976, CAREERS ORG; HALL DT, 1968, ORGAN BEHAV HUM PERF, V3, P12, DOI 10.1016/0030-5073(68)90024-X; HALL DT, 1975, CORNELL CAREER DEV S; HAYS WL, 1973, STATISTICS SOCIAL SC; Herzberg F, 1959, MOTIVATION WORK; HINRICHS JR, 1968, PERS PSYCHOL, V21, P479, DOI 10.1111/j.1744-6570.1968.tb02047.x; HULIN CL, 1968, PSYCHOL BULL, V69, P41, DOI 10.1037/h0025356; HULIN CL, 1968, J APPL PSYCHOL, V52, P122, DOI 10.1037/h0025655; HULIN CL, 1965, J APPL PSYCHOL, V49, P209, DOI 10.1037/h0022164; HUNT JG, 1975, ACAD MANAGE J, V18, P475; JENNINGS EE, 1965, EXECUTIVE CRISIS; KATZ R, 1976, 36TH P ANN M AC MAN, P104; KELLEY F, 1969, RES DESIGN BEHAVIORA; KORMAN AK, 1971, IND ORG PSYCHOLOGY; Lawler E. E., 1973, MOTIVATION WORK ORG; LOCKE EA, 1970, ORGAN BEHAV HUM PERF, V5, P484, DOI 10.1016/0030-5073(70)90036-X; MIKES PS, 1968, J APPL PSYCHOL, V52, P394, DOI 10.1037/h0026242; MINER JB, 1974, CONT PROBLEMS PERSON, P246; NIE NH, 1975, STATISTICAL PACKAGE; OLDHAM GR, 1976, J APPL PSYCHOL, V61, P395, DOI 10.1037//0021-9010.61.4.395; Porter L.W., 1968, MANAGERIAL ATTITUDES; ROETHLISBERGER FJ, 1939, MANAGEMENT WORKER; SCHEIN EH, 1968, IMR-IND MANAG REV, V9, P1; SCHEIN EH, 1971, J APPL BEHAV SCI, V7, P401, DOI 10.1177/002188637100700401; SCHEIN EH, 1961, IMR-IND MANAG REV, V2, P59; SCHULER RS, 1977, ACAD MANAGE J, V20, P159, DOI 10.2307/255471; SCHWAB DP, 1970, IND RELAT, V9, P408, DOI 10.1111/j.1468-232X.1970.tb00524.x; Smith P. C., 1969, MEASUREMENT SATISFAC; SUPER DE, 1957, PSYCHOLOGY CAREERS; SUTERMEISTER RA, 1971, CALIF MANAGE REV, V13, P43, DOI 10.2307/41164318; Turner AN, 1965, IND JOBS WORKER; VANMAANEN J, 1976, PERS PSYCHOL, V29, P601; VROOM VH, 1964, WORK MOTIVATION; WANOUS JP, 1974, J APPL PSYCHOL, V59, P139, DOI 10.1037/h0036532	44	43	43	0	9	ACAD MANAGEMENT	ADA	PO BOX 39 300 SOUTH UNION STREET, ADA, OH 45810-0039	0001-4273			ACAD MANAGE J	Acad. Manage. J.		1978	21	3					434	450		10.2307/255725				17	Business; Management	Business & Economics	FP125	WOS:A1978FP12500007	10246527				2019-01-18	
J	MCDEVITT, CD; WATSON, HJ				MCDEVITT, CD; WATSON, HJ			ASSESSMENT OF PROBABILITY ENCODING USING A PROBABILISTIC, NON-INTERACTIVE MANAGEMENT GAME	ACADEMY OF MANAGEMENT JOURNAL			English	Article									UNIV GEORGIA, ATHENS, GA 30602 USA	MCDEVITT, CD (reprint author), AUBURN UNIV, MONTGOMERY, AL 36109 USA.						BABB EM, 1966, MANAGEMENT GAMES TEA; BASS BM, 1964, MANAGE SCI, V10, P545, DOI 10.1287/mnsc.10.3.545; COLE T, 1970, MANAGEMENT ACCOUNTIN, V52, P61; CONRATH DW, 1973, MANAGE SCI, V19, pB873; ELIASON AL, 1972, ACAD MANAGE J, V15, P147, DOI 10.2307/254906; ESTES WK, 1972, J AM STAT ASSOC, V67, P81; FINETTE BD, 1964, STUDIES SUBJECTIVE P, P99; Good I., 1962, SCI SPECULATES; Good I. J., 1965, ESTIMATION PROBABILI; GREEN PE, 1965, J MARKETING RES, V2, P266, DOI 10.2307/3150185; GREEN PE, 1967, MANAGE SCI, V14, pB250; HOGARTH RM, 1975, J AM STAT ASSOC, V70, P271, DOI 10.2307/2285808; Huber GP, 1974, DECISION SCI, V5, P430, DOI 10.1111/j.1540-5915.1974.tb00630.x; JONES LD, 1975, DECISION SCI, V6, P541; Kyburg HE, 1964, STUDIES SUBJECTIVE P; MAO JCT, 1970, J FINANC, V25, P349, DOI 10.2307/2325481; MCDEVITT CD, 1975, THESIS U GEORGIA; MODER JJ, 1968, MANAGE SCI, V15, pB76; MOSKOWITZ H, 1973, MANAGE SCI, V19, pB676; PETERSON CR, 1967, PSYCHOL BULL, V68, P29, DOI 10.1037/h0024722; PICKHARDT RC, 1974, DECISION SCI, V5, P347; SANDERS P, 1963, J APPL METEOROL, V2, P191; SCHLAIFER R, 1961, INTRO STATISTICS BUS; SIEGEL S, 1964, DECISION CHOICE; Siegel S., 1956, NONPARAMETRIC STATIS; SMITH LH, 1967, MANAGE SCI, V14, pB236; SPETZLER CS, 1975, MANAGE SCI, V22, P340, DOI 10.1287/mnsc.22.3.340; STAELVONHOLSTEI.CA, 1970, ASSESSMENT EVALUATIO; WINKLER RL, 1967, J AM STAT ASSOC, V62, P776, DOI 10.2307/2283671; WINKLER RL, 1971, J AM STAT ASSOC, V66, P675, DOI 10.2307/2284212; WINKLER RL, 1967, J AM STAT ASSOC, V62, P1109; Winkler RL, 1968, J APPL METEOROL, V7, P751, DOI DOI 10.1175/1520-0450(1968)007<0751:PA>2.0.CO;2	32	0	0	0	2	ACAD MANAGEMENT	BRIARCLIFF MANOR	PACE UNIV, PO BOX 3020, 235 ELM RD, BRIARCLIFF MANOR, NY 10510-8020 USA	0001-4273	1948-0989		ACAD MANAGE J	Acad. Manage. J.		1978	21	3					451	462		10.2307/255726				12	Business; Management	Business & Economics	FP125	WOS:A1978FP12500008					2019-01-18	
J	HELMICH, DL				HELMICH, DL			LEADER FLOWS AND ORGANIZATIONAL PROCESS	ACADEMY OF MANAGEMENT JOURNAL			English	Article										HELMICH, DL (reprint author), UNIV CALIF SAN DIEGO,SCH BUSINESS ADM,SAN DIEGO,CA 92103, USA.						Blauner Robert, 1964, ALIENATION FREEDOM F; BOHRNSTEDT G, 1969, SOC METHODOLOGY, P120; CHAPIN E, 1957, AM J SOC, V62, P449; COLEMAN RJ, 1970, PERS J, V49, P994; EITZEN R, 1972, ADM SCI Q, V17, P110; EVERS FT, 1976, ADMIN SCI QUART, V21, P326, DOI 10.2307/2392049; GORDON G, 1964, AM J SOCIOL, V70, P215, DOI 10.1086/223795; Gouldner A. W., 1965, PATTERNS IND BUREAUC; GREINER LE, 1972, HARVARD BUS REV, V50, P37; GRUSKY O, 1961, AM J SOCIOL, V67, P261, DOI 10.1086/223129; GRUSKY O, 1963, AM J SOCIOL, V69, P21, DOI 10.1086/223507; GRUSKY O, 1964, NEW MILITARY CHANGIN, P83; GRUSKY O, 1964, AM J SOC, V70, P223; GUEST RH, 1962, AM J SOCIOL, V68, P47, DOI 10.1086/223265; HAMBLIN RL, 1958, SOCIOMETRY, V21, P322, DOI 10.2307/2785796; HARVEY E, 1968, AM SOCIOL REV, V33, P247, DOI 10.2307/2092391; HELMICH DL, 1974, ACAD MANAGE J, V17, P771, DOI 10.2307/255654; KRIESBERG L, 1962, AM J SOCIOL, V68, P355, DOI 10.1086/223355; Lawrence P. R., 1967, ORG ENV; LIEBERSON S, 1972, AM SOCIOL REV, V37, P117, DOI 10.2307/2094020; PERRY N, 1976, 36TH ANN NAT M AC MA; PFEFFER J, 1972, ADMIN SCI QUART, V17, P382, DOI 10.2307/2392151; PFEFFER J, 1973, ADMIN SCI QUART, V18, P449, DOI 10.2307/2392198; Pfeffer J., 1976, ACAD MANAGE REV, V1, P36; SKIPPER JK, 1964, AM J SOCIOL, V69, P415, DOI 10.1086/223625; Starbuck W. H., 1965, HDB ORG, P451; STIEGLITZ H, 1966, C BOARD REC, V3, P40; Thompson J. P., 1967, ORG ACTION; TROW D, 1960, HUMAN RELATIONS, V13, P371; TROW DB, 1961, ADMIN SCI QUART, V6, P228, DOI 10.2307/2390756; UDY S, 1970, COMP PERSPECTIVES FO, P47; VROOM VH, 1968, ADMIN SCI QUART, V13, P26, DOI 10.2307/2391260; Woodward J., 1965, IND ORG THEORY PRACT; ZILLER R C, 1965, Psychol Bull, V64, P164, DOI 10.1037/h0022390; 1976, SURVEY CURRENT BUSIN, pS5; 1922, MOODYS IND MANUAL; 1970, CHEM ENGINEERING NEW, V106, P21; 1976, REGISTER CORPORATION	38	9	9	0	3	ACAD MANAGEMENT	ADA	PO BOX 39 300 SOUTH UNION STREET, ADA, OH 45810-0039	0001-4273			ACAD MANAGE J	Acad. Manage. J.		1978	21	3					463	478		10.2307/255727				16	Business; Management	Business & Economics	FP125	WOS:A1978FP12500009					2019-01-18	
J	STAW, BM; OLDHAM, GR				STAW, BM; OLDHAM, GR			RECONSIDERING OUR DEPENDENT VARIABLES - CRITIQUE AND EMPIRICAL-STUDY	ACADEMY OF MANAGEMENT JOURNAL			English	Article									UNIV ILLINOIS,INST LABOR & IND RELAT,URBANA,IL 61801	STAW, BM (reprint author), NORTHWESTERN UNIV,EVANSTON,IL 60201, USA.						ARGYLE M, 1958, HUM RELAT, V11, P23, DOI 10.1177/001872675801100102; Argyris C., 1976, HDB IND ORG PSYCHOL, P151; Argyris C., 1964, INTEGRATING INDIVIDU; Argyris C., 1957, PERSONALITY ORG; Berlyne DE, 1967, NEBRASKA S MOTIVATIO, P1; Blalock H.M., 1964, CAUSAL INFERENCES NO; BLOOD MR, UNPUBLISHED; BRIEF AP, 1975, J APPL PSYCHOL, V60, P182, DOI 10.1037/h0076548; CAMPBELL DT, J SOCIAL ISSUES; COLLINS BE, 1964, SOCIAL PSYCHOLOGY GR; Galbraith John Kenneth, 1967, NEW IND STATE; Hackman J.R., 1977, IMPROVING LIFE WORK, P96; HACKMAN JR, 1971, J APPL PSYCHOL, V55, P259, DOI 10.1037/h0031152; HACKMAN JR, 1976, ORGAN BEHAV HUM PERF, V16, P250, DOI 10.1016/0030-5073(76)90016-7; HACKMAN JR, 1975, J APPL PSYCHOL, V60, P159, DOI 10.1037/h0076546; HACKMAN JR, 1974, JSAS CATALOG SELECTE, V4, P148; Helson H., 1964, ADAPTION LEVEL THEOR; Hunt J. McVicker, 1961, INTELLIGENCE EXPERIE; JABLONSKY SF, 1972, ORGAN BEHAV HUM PERF, V7, P340, DOI 10.1016/0030-5073(72)90021-9; JACOBS RC, 1961, J ABNORM SOC PSYCH, V62, P649, DOI 10.1037/h0044182; JESWALD TA, 1974, CONT PROBLEMS PERSON, P352; KELLEY HH, 1973, AM PSYCHOL, V28, P107, DOI 10.1037/h0034225; Kornhauser A, 1965, MENTAL HLTH IND WORK; Lawler E. E., 1973, MOTIVATION WORK ORG; LAWLER EE, 1969, J APPL PSYCHOL, V53, P467, DOI 10.1037/h0028657; Lewin K., 1951, FIELD THEORY SOCIAL; LICHTMAN CM, 1971, PSYCHOL BULL, V76, P271, DOI 10.1037/h0031636; LYONS TF, 1972, PERS PSYCHOL, V25, P271, DOI 10.1111/j.1744-6570.1972.tb01103.x; Murray H. A., 1938, EXPLORATIONS PERSONA; NICHOLSON N, 1977, J APPL PSYCHOL, V62, P319, DOI 10.1037//0021-9010.62.3.319; NORD W, 1970, PERS ADMIN, V33, P37; NORD WR, 1969, ORGAN BEHAV HUM PERF, V4, P375, DOI 10.1016/0030-5073(69)90017-8; OLDHAM GR, 1976, J APPL PSYCHOL, V61, P395, DOI 10.1037//0021-9010.61.4.395; PEDALINO E, 1974, J APPL PSYCHOL, V59, P694, DOI 10.1037/h0037505; PERVIN LA, 1968, PSYCHOL BULL, V69, P56, DOI 10.1037/h0025271; Pfeffer J., 1976, ACAD MANAGE REV, V1, P36; PONDY LR, RES ORG BEHAVIOR ANN; PORTER LW, 1973, PSYCHOL BULL, V80, P151, DOI 10.1037/h0034829; PORTER LW, 1975, BEHAVIOR ORG; RONAN WW, 1963, J IND PSYCHOL, V1, P107; Salancik G., 1977, NEW DIRECTIONS ORG B, P1; SAUNDERS DR, 1956, EDUC PSYCHOL MEAS, V16, P209, DOI 10.1177/001316445601600205; SCOTT WE, 1966, ORGAN BEHAV HUM PERF, V1, P3, DOI 10.1016/0030-5073(66)90003-1; SEASHORE SE, 1960, J APPL PSYCHOL, V44, P195, DOI 10.1037/h0044267; SELLS SB, 1963, AM PSYCHOL, V18, P696, DOI 10.1037/h0042730; SEYBOLT JW, 1976, ORG BEHAVIOR HUMAN P, V16, P66; SHERIF M, 1947, PSYCHOLOGY EGO INVOL; SIMS HP, 1976, ORGAN BEHAV HUM PERF, V17, P211, DOI 10.1016/0030-5073(76)90063-5; Staw B. M., 1977, NEW DIRECTIONS ORG B, P55; Staw B. M, 1976, INTRINSIC EXTRINSIC; STAW BM, 1975, ORGAN BEHAV HUM PERF, V13, P414, DOI 10.1016/0030-5073(75)90060-4; Steiner I. D., 1972, GROUP PROCESS PRODUC; STONE EF, 1976, ORGAN BEHAV HUM PERF, V15, P147, DOI 10.1016/0030-5073(76)90034-9; Thompson J. P., 1967, ORG ACTION; TURNER WW, 1960, J APPL PSYCHOL, V44, P216, DOI 10.1037/h0041010; UMSTOT DD, 1976, J APPL PSYCHOL, V61, P379, DOI 10.1037/0021-9010.61.4.379; *US DEP LAB, 1975, 172 SPEC LAB REP; WANOUS JP, 1974, J APPL PSYCHOL, V59, P616, DOI 10.1037/h0037337; WEICK KE, 1971, J PERS SOC PSYCHOL, V17, P179, DOI 10.1037/h0030461; WEICK KE, UNPUBLISHED; WELLEMS EP, 1973, REPRESENTATIVE RES S, V4, P93; YUCHTMAN E, 1967, AM SOCIOL REV, V32, P891, DOI 10.2307/2092843; ZALKIND SS, 1962, ADMIN SCI QUART, V7, P218, DOI 10.2307/2390856; ZEDECK S, 1971, PSYCHOL BULL, V76, P295, DOI 10.1037/h0031543	64	81	81	0	3	ACAD MANAGEMENT	ADA	PO BOX 39 300 SOUTH UNION STREET, ADA, OH 45810-0039	0001-4273			ACAD MANAGE J	Acad. Manage. J.		1978	21	4					539	559		10.2307/255699				21	Business; Management	Business & Economics	GA015	WOS:A1978GA01500001					2019-01-18	
J	HAMMER, TH				HAMMER, TH			RELATIONSHIPS BETWEEN LOCAL UNION CHARACTERISTICS AND WORKER BEHAVIOR AND ATTITUDES	ACADEMY OF MANAGEMENT JOURNAL			English	Article										HAMMER, TH (reprint author), CORNELL UNIV,NEW YORK STATE SCH IND & LABOR RELAT,ITHACA,NY 14853, USA.						ALUTTO JA, 1974, IND LABOR RELAT REV, V27, P216, DOI 10.2307/2521938; ARONSON E, 1959, J ABNORM SOC PSYCH, V59, P177, DOI 10.1037/h0047195; ASHENFELTER O, UNPUBLISHED; BARKIN S, 1975, WORKER MILITANCY ITS; CAMPBELL JP, 1970, MANAGERIAL BEHAVIOR; CHAMBERLAIN N, 1971, LABOR SECTOR; Chamberlain NW, 1951, COLLECTIVE BARGAININ; DEAN LR, 1954, IND LABOR RELATIONS, V1, P526; DRISCOLL JW, UNPUBLISHED; Festinger L., 1957, THEORY COGNITIVE DIS; FRENCH JRP, 1968, GROUP DYNAMICS; Getman J. G, 1976, UNION REPRESENTATION; HALL DT, 1971, ORGAN BEHAV HUM PERF, V6, P50, DOI 10.1016/0030-5073(71)90005-5; HERMAN JB, 1975, ORGAN BEHAV HUM PERF, V13, P206, DOI 10.1016/0030-5073(75)90046-X; HOMANS GC, 1965, LEADERSHIP PRODUCTIV; Kahn Robert L., 1964, ORG STRESS STUDIES R; KATZ D, 1966, SOCIAL PSYCHOLOGY; Kerr WA, 1954, PERS PSYCHOL, V7, P59, DOI 10.1111/j.1744-6570.1954.tb02258.x; KOCHAN TA, 1975, IND LABOR RELAT REV, V29, P46, DOI 10.2307/2521850; KOCHAN TA, 1977, Q J ECON, V91, P431, DOI 10.2307/1885976; KOCHAN TA, 1975, 27TH P M IND REL RES, P150; Ladd Jr Everett Carl, 1973, PROFESSORS UNIONS AM; Lawler E. E, 1971, PAY ORG EFFECTIVENES; Lawler E. E., 1973, MOTIVATION WORK ORG; Levinson H.M., 1966, DETERMINING FORCES C; LEWIS G, 1963, UNIONISM RELATIVE WA; Locke E. A, 1976, HDB IND ORG PSYCHOLO; NORSTEDT JP, 1973, SAAB SCANIA REPORT; PORTER L W, 1965, Psychol Bull, V64, P23, DOI 10.1037/h0022166; PURCELL T, 1954, WORKER SPEAKS HIS MI; Rees A., 1962, EC TRADE UNIONS; ROSEN S, 1969, REV ECON STUD, V36, P185, DOI 10.2307/2296836; ROSEN S, 1975, WORKER MILITANCY ITS; Sayles Leonard R., 1967, LOCAL UNION; Seidman J., 1958, WORKER VIEWS HIS UNI; Slichter S. H., 1960, IMPACT COLLECTIVE BA; Smith P. C., 1969, MEASUREMENT SATISFAC; STAGNER R, 1954, PERS PSYCHOL, V1, P41; STRAUSS G, 1963, ANN AM ACAD POLIT SS, V350, P86, DOI 10.1177/000271626335000111; STUDENT KR, 1968, J APPL PSYCHOL, V52, P188, DOI 10.1037/h0025886; VROOM VH, 1964, WORK MOTIVATION	41	18	18	0	4	ACAD MANAGEMENT	ADA	PO BOX 39 300 SOUTH UNION STREET, ADA, OH 45810-0039	0001-4273			ACAD MANAGE J	Acad. Manage. J.		1978	21	4					560	577		10.2307/255700				18	Business; Management	Business & Economics	GA015	WOS:A1978GA01500002					2019-01-18	
J	FILLEY, AC; ALDAG, RJ				FILLEY, AC; ALDAG, RJ			CHARACTERISTICS AND MEASUREMENT OF AN ORGANIZATIONAL TYPOLOGY	ACADEMY OF MANAGEMENT JOURNAL			English	Article										FILLEY, AC (reprint author), UNIV WISCONSIN,SCH BUSINESS,MADISON,WI 53706, USA.						ALDAG RJ, 1975, J APPL PSYCHOL, V60, P757, DOI 10.1037/0021-9010.60.6.757; ALDAG RJ, 1977, 20TH P ANN C MIDW DI, P133; BENNETT JW, 1956, ANN AM ACAD POLIT SS, V305, P101, DOI 10.1177/000271625630500112; Blau P., 1962, FORMAL ORG; BLOOD MR, 1969, J APPL PSYCHOL, V53, P456, DOI 10.1037/h0028653; CARNEIRO RL, 1963, T NEW YORK ACAD SCI, V26, P196, DOI 10.1111/j.2164-0947.1963.tb01242.x; CHILD J, 1973, ADMIN SCI QUART, V18, P168, DOI 10.2307/2392061; Etzioni A., 1964, MODERN ORG; Filley A. C, 1976, MANAGERIAL PROCESS O; FILLEY AC, 1975, ORG TYPOLOGY; FILLEY AC, 1969, MANAGERIAL PROCESS O; FILLEY AC, 1976, 19TH P ANN C MIDW DI, P1; Haas J. E., 1966, STUDIES BEHAVIOR ORG, P157; HACKMAN JR, 1971, J APPL PSYCHOL, V55, P259, DOI 10.1037/h0031152; HALL RH, 1966, AM J SOCIOL, V72, P267, DOI 10.1086/224294; Harman H.H., 1971, MODERN FACTOR ANAL; HOFFER E, 1958, TRUE BELIEVER; KIMBERLY JR, 1975, ADMIN SCI QUART, V20, P1, DOI 10.2307/2392119; KIMBERLY JR, 1976, ADMIN SCI QUART, V21, P571, DOI 10.2307/2391717; Kogan N., 1964, RISK TAKING STUDY CO; LAWRENCE P, 1969, ORG ENV; Lester Richard, 1958, UNIONS MATURE; LIPPITT GL, 1967, HARVARD BUS REV, V45, P102; Nunnally JC, 1967, PSYCHOMETRIC THEORY; OLIVA TA, 1976, P SE M; Robinson JP, 1973, MEASURES SOCIAL PSYC; Rostow W. W., 1960, STAGES EC GROWTH; ROTTER JB, 1966, PSYCHOL MONOGR, V80, P1, DOI 10.1037/h0092976; STARBUCK W, 1968, PROMISING RES DIRECT; Starbuck W. H., 1965, HDB ORG, P451; Thompson J. P., 1967, ORG ACTION; UDY S, 1958, AM SOCIOL REV, V23, P415, DOI 10.2307/2088805; Veldman D.J., 1967, FORTRAN PROGRAMMING; Weber Maximilian Carl, 1947, THEORY SOCIAL EC ORG; Woodward J., 1965, IND ORG THEORY PRACT	35	46	49	0	4	ACAD MANAGEMENT	ADA	PO BOX 39 300 SOUTH UNION STREET, ADA, OH 45810-0039	0001-4273			ACAD MANAGE J	Acad. Manage. J.		1978	21	4					578	591		10.2307/255701				14	Business; Management	Business & Economics	GA015	WOS:A1978GA01500003					2019-01-18	
J	HATTEN, KJ; SCHENDEL, DE; COOPER, AC				HATTEN, KJ; SCHENDEL, DE; COOPER, AC			STRATEGIC MODEL OF UNITED-STATES BREWING INDUSTRY - 1952-1971	ACADEMY OF MANAGEMENT JOURNAL			English	Article									PURDUE UNIV,KRANNERT GRAD SCH IND ADM,W LAFAYETTE,IN 47907	HATTEN, KJ (reprint author), HARVARD UNIV,MASSACHUSETTS GEN HOSP,SCH BUSINESS,BOSTON,MA 02114, USA.						Ackerman R. W., 1975, SOCIAL CHALLENGE BUS; ACKOFF R. A, 1970, CONCEPT CORPORATE PL; Aguilar F, 1967, SCANNING BUSINESS EN; ANSOFF HI, 1972, J BUS POLICY, V2, P3; ANSOFF HI, 1971, ACQUISITION BEHAVIOR; Ansoff HI, 1965, CORPORATE STRATEGY; Bain J. S, 1956, BARRIERS NEW COMPETI; BARNARD CI, 1965, FUNCTIONS EXECUTIVE; BASS FM, 1974, J ADVERTISING RES, V14, P9; BERG N, 1965, HARVARD BUS REV, V43, P79; *BOST CONS GRP INC, 1968, PERSP EXP; Bower J. L, 1970, MANAGING RESOURCE AL; BUZZELL RD, 1975, HARVARD BUS REV, V53, P97; CAVES R, 1972, AM IND STRUCTURE CON; Chandler A. D., 1962, STRATEGY STRUCTURE; CHEVALIER M, 1972, EUR BUS, P63; COMANOR WS, 1967, REV ECON STAT, V49, P423, DOI 10.2307/1928327; COMANOR WS, 1969, AM ECON REV, V59, P87; Drucker P. E., 1974, MANAGEMENT TASKS RES; FRUHAN WE, 1972, HARVARD BUS REV, V50, P100; FRUHAN WE, 1972, FIGHT COMPETITIVE AD; GUTH WD, 1972, J BUSINESS POLICY, V2, P31; GUTMANN PM, 1964, CALIF MANAGE REV, V6, P31, DOI 10.2307/41165604; HATTEN KJ, 1977, J IND ECON, V26, P97, DOI 10.2307/2097932; Hofer C. W., 1978, STRATEGY FORMULATION; KITCHING J, 1967, HARVARD BUS REV, V45, P84; Lawrence P. R., 1967, ORG ENV; Learned E.P., 1969, BUSINESS POLICY TEXT; Mintzberg H, 1973, NATURE MANAGERIAL WO; NAYLOR TH, 1976, MANAGE SCI, V22, P927, DOI 10.1287/mnsc.22.9.927; Rumelt R. P., 1974, STRATEGY STRUCTURE E; SCHENDEL D, 1978, STRATEGIC MANAGEMENT; SCHOEFFLER S, 1974, HARVARD BUS REV, V52, P137; SCOTT BR, 1973, HARVARD BUS REV, V51, P133; SIMON JL, 1965, J ADVERTISING RES, V5, P15; STEINER GA, 1975, BUSINESS SOC; WEISS L, 1971, FRONTIERS QUANTITATI; WESTON JF, 1971, J FINANC, V26, P919, DOI 10.2307/2325241; WINN D, 1975, IND MARKET SHARE PER; 1949, BREWING IND	40	154	159	1	9	ACAD MANAGEMENT	ADA	PO BOX 39 300 SOUTH UNION STREET, ADA, OH 45810-0039	0001-4273			ACAD MANAGE J	Acad. Manage. J.		1978	21	4					592	610		10.2307/255702				19	Business; Management	Business & Economics	GA015	WOS:A1978GA01500004					2019-01-18	
J	DIMICK, DE; MURRAY, VV				DIMICK, DE; MURRAY, VV			CORRELATES OF SUBSTANTIVE POLICY DECISIONS IN ORGANIZATIONS - CASE OF HUMAN RESOURCE-MANAGEMENT	ACADEMY OF MANAGEMENT JOURNAL			English	Article										DIMICK, DE (reprint author), YORK UNIV,FAC ADMINISTRAT STUDIES,DEPT SOCIOL,DOWNSVIEW M3J 1P3,ONTARIO,CANADA.						CARROLL SJ, 1977, ORG BEHAVIOR; CARTER E, 1972, ADM SCI Q, V16, P413; COHEN M, 1972, ADM SCI Q, V16, P1; CYERT RM, 1963, BEHAVIORAL THEORY FI; DIMICK DE, 1978, CANADIAN PERSONNEL I, V25, P23; French W., 1974, PERSONNEL MANAGEMENT; Galbraith John Kenneth, 1967, NEW IND STATE; Glueck W. F., 1974, PERSONNEL DIAGNOSTIC; Lawrence P. R., 1967, ORG ENV; LINDFLOUR C, 1968, POLICY MAKING PROCES; LONG CC, 1965, MANAGEMENT PERSONNEL; March J., 1976, AMBIGUITY CHOICE ORG; MCMILLAN CJ, UNPUBLISHED; MORLEY E, 1974, ADMIN SCI QUART, V19, P295, DOI 10.2307/2391974; MURRAY VV, UNPUBLISHED; PERROW C, 1970, ORG ANAL SOC VIEW; PUGH DS, 1969, ADMIN SCI QUART, V14, P91, DOI 10.2307/2391366; Thompson J. P., 1967, ORG ACTION; WOODWARD J, 1965, IND ORG	19	43	49	0	2	ACAD MANAGEMENT	ADA	PO BOX 39 300 SOUTH UNION STREET, ADA, OH 45810-0039	0001-4273			ACAD MANAGE J	Acad. Manage. J.		1978	21	4					611	623		10.2307/255703				13	Business; Management	Business & Economics	GA015	WOS:A1978GA01500005					2019-01-18	
J	TUSHMAN, ML				TUSHMAN, ML			TECHNICAL COMMUNICATION IN R AND D LABORATORIES - IMPACT OF PROJECT WORK CHARACTERISTICS	ACADEMY OF MANAGEMENT JOURNAL			English	Article										TUSHMAN, ML (reprint author), COLUMBIA UNIV,GRAD SCH BUSINESS,NEW YORK,NY 10027, USA.						AIKEN M, 1968, AM SOCIOL REV, V33, P912, DOI 10.2307/2092683; Aldrich H, 1977, ACAD MANAGE REV, V2, P217, DOI DOI 10.5465/AMR.1977.4409044; ALLEN TJ, 1969, ADMIN SCI QUART, V14, P12, DOI 10.2307/2391357; ALLEN TJ, 1970, COMMUNICATIONS SCI T; ALLEN TJ, 1966, THESIS MIT; BAKER NR, 1972, MANAGE SCI, V19, P105, DOI 10.1287/mnsc.19.1.105; BARNARD C., 1938, FUNCTIONS EXECUTIVE; CZEPIEL JA, 1975, ACAD MANAGE J, V18, P6, DOI 10.2307/255621; DEARBORN R, 1958, SOCIOMETRY, V21, P140; DICKSON W, 1969, STATISTICAL ANAL; DUNCAN RB, 1973, HUM RELAT, V26, P273, DOI 10.1177/001872677302600301; GALBRAITH JR, 1973, DESIGNING COMPLEX OR; GERSTBERGER PG, 1968, J APPL PSYCHOL, V52, P272, DOI 10.1037/h0026041; GOLDHAR G, 1976, IEEE T ENGINEERING M, V23, P51; GRUBER WH, 1974, R&D MANAGE, V4, P157; GUETZKOW H, 1965, HDB ORG; HACKMAN JR, 1968, J EXP SOC PSYCHOL, V4, P162, DOI 10.1016/0022-1031(68)90040-1; HACKMAN JR, 1970, SOCIOMETRY, V33, P37, DOI 10.2307/2786271; HAGE J, 1971, AM SOCIOL REV, V36, P860, DOI 10.2307/2093672; HAGE J, 1967, ADMIN SCI QUART, V12, P72, DOI 10.2307/2391213; HAGE J, 1969, ADM SCI Q, V14, P378; HALL RH, 1962, ADMIN SCI QUART, V7, P295, DOI 10.2307/2390944; KATZ D, 1966, SOCIAL PSYCHOLOGY; KELLER R, HUMAN RELATIONS; KELLEY P, 1975, TECHNOLOGICAL INNOVA; KHANDWALLA PN, 1974, ADMIN SCI QUART, V19, P74, DOI 10.2307/2391789; KRAUSS RM, 1977, SCI AM, V236, P100, DOI 10.1038/scientificamerican0277-100; Lawrence P. R., 1967, ORG ENV; MANSFIELD E, 1975, J BUS, V48, P179, DOI 10.1086/295734; March J. G., 1958, ORGANIZATIONS; MENZEL H, 1966, ANN REV INFORMATION; Miller R, 1971, INNOVATION ORG ENV; Mintzberg H, 1973, NATURE MANAGERIAL WO; Myers S., 1969, SUCCESSFUL IND INNOV; *NAT AC SCI, 1969, SCI TECHN COMM; Pelz D. C., 1966, SCI ORG; PENNINGS JM, 1975, ADMIN SCI QUART, V20, P393, DOI 10.2307/2391999; PORTER LW, 1976, HDB IND ORG PSYCHOLO; REIMANN BC, 1974, ACAD MANAGE J, V17, P693, DOI 10.2307/255647; ROBERTS KH, 1974, HUM RELAT, V27, P501, DOI 10.1177/001872677402700507; ROSENBLOOM RS, 1970, TECHNOLOGY INFORMATI; RUBENSTEIN AH, 1976, RES MANAGEMENT   MAY, P15; SCHWARTZ DF, 1977, ORGAN BEHAV HUM PERF, V18, P158, DOI 10.1016/0030-5073(77)90026-5; Searle John R., 1969, SPEECH ACTS ESSAY PH; Thompson J. P., 1967, ORG ACTION; TRIANDIS HC, 1960, HUM RELAT, V13, P175, DOI 10.1177/001872676001300206; TUSHMAN ML, 1977, ADMIN SCI QUART, V22, P587, DOI 10.2307/2392402; UTTERBACK J, 1971, ACADEMY MANAGEMENT J, V14, P27; UTTERBACK JM, 1974, SCIENCE, V183, P620, DOI 10.1126/science.183.4125.620; VANDEVEN AH, 1976, AM SOCIOL REV, V41, P322; Von Hippel E., 1976, RES POLICY, V5, P212, DOI DOI 10.1016/0048-7333(76)90028-7; WEICK KE, 1969, SOCIAL PSYCHOLOGY OR; WEISS R, 1960, SOCIOMETRY READER, P522; WHITLEY R, 1971, HUM RELAT, V24, P161, DOI 10.1177/001872677102400205; WHITLEY R, 1973, HUM RELAT, V25, P537; Zaltman G., 1973, INNOVATION ORG	56	170	173	3	18	ACAD MANAGEMENT	ADA	PO BOX 39 300 SOUTH UNION STREET, ADA, OH 45810-0039	0001-4273			ACAD MANAGE J	Acad. Manage. J.		1978	21	4					624	645		10.2307/255704				22	Business; Management	Business & Economics	GA015	WOS:A1978GA01500006					2019-01-18	
J	GRELLER, MM				GRELLER, MM			NATURE OF SUBORDINATE PARTICIPATION IN APPRAISAL INTERVIEW	ACADEMY OF MANAGEMENT JOURNAL			English	Article										GRELLER, MM (reprint author), ROHRER HIBLER & REPLOGLE INC,NEW YORK,NY, USA.						BLOOD MR, 1969, J APPL PSYCHOL, V53, P456, DOI 10.1037/h0028653; COMREY AL, 1954, FACTORS INFLUENCING; EINHORN HJ, 1975, ORGAN BEHAV HUM PERF, V13, P171, DOI 10.1016/0030-5073(75)90044-6; FRENCH JRP, 1966, HUM RELAT, V19, P3, DOI 10.1177/001872676601900101; GRELLER MM, 1975, ORGAN BEHAV HUM PERF, V13, P244, DOI 10.1016/0030-5073(75)90048-3; GRELLER MM, 1975, J APPL PSYCHOL, V60, P544, DOI 10.1037/0021-9010.60.5.544; HEROLD DM, 1974, J APPL PSYCHOL, V59, P649, DOI 10.1037/h0037330; HILLERY JM, 1974, J APPL PSYCHOL, V59, P168, DOI 10.1037/h0036522; MAIER NRF, 1973, PSYCHOLOGY IND ORG; MCGREGOR D, 1957, HARVARD BUS REV, V35, P89; MEYER HH, 1965, HARVARD BUS REV, V43, P123; NEMEROFF WF, 1977, P ACADEMY MANAGEMENT, P30; RONAN WW, 1973, J APPL PSYCHOL, V58, P302, DOI 10.1037/h0036303; SZILAGYI AD, 1974, J APPL PSYCHOL, V59, P767, DOI 10.1037/h0037510; WEXLEY KN, 1973, J APPL PSYCHOL, V58, P54, DOI 10.1037/h0035411; WIGDOR LA, 1969, THESIS CITY U NEW YO	16	53	53	0	3	ACAD MANAGEMENT	ADA	PO BOX 39 300 SOUTH UNION STREET, ADA, OH 45810-0039	0001-4273			ACAD MANAGE J	Acad. Manage. J.		1978	21	4					646	658		10.2307/255705				13	Business; Management	Business & Economics	GA015	WOS:A1978GA01500007					2019-01-18	
J	BRIEF, AP; ALDAG, RJ				BRIEF, AP; ALDAG, RJ			JOB CHARACTERISTIC INVENTORY - EXAMINATION	ACADEMY OF MANAGEMENT JOURNAL			English	Article									UNIV WISCONSIN,GRAD SCH BUSINESS,MADISON,WI 53706	BRIEF, AP (reprint author), UNIV IOWA,COLL BUSINESS ADM,IOWA CITY,IA 52240, USA.						Brayfield AH, 1951, J APPL PSYCHOL, V35, P307, DOI 10.1037/h0055617; BROWN W, 1960, EXPLORATION MANAGEME; CAMPBELL DT, 1959, PSYCHOL BULL, V56, P81, DOI 10.1037/h0046016; COUCH A, 1960, J ABNORM SOC PSYCH, V60, P151, DOI 10.1037/h0040372; CRONBACH LJ, 1951, PSYCHOMETRIKA, V16, P297; Crowne D, 1964, APPROVAL MOTIVE; Cumming L, 1976, ACAD MANAGE REV, V1, P23; DUNHAM RB, 1977, ACAD MANAGE J, V20, P209, DOI 10.2307/255395; DUNHAM RB, 1976, J APPL PSYCHOL, V61, P404, DOI 10.1037/0021-9010.61.4.404; GLOBERSON S, 1976, ORGAN BEHAV HUM PERF, V17, P231, DOI 10.1016/0030-5073(76)90064-7; HACKMAN JR, 1971, J APPL PSYCHOL, V55, P259, DOI 10.1037/h0031152; HACKMAN JR, 1975, J APPL PSYCHOL, V60, P159, DOI 10.1037/h0076546; Harman H.H., 1971, MODERN FACTOR ANAL; Homans G. C., 1950, HUMAN GROUP; Kim JO, 1975, STATISTICAL PACKAGE, P468; MCCORMICK EJ, 1976, HDB IND ORG PSYCHOLO; Nunnally JC, 1967, PSYCHOMETRIC THEORY; PIERCE JL, 1977, 20TH ANN M MIDW DIV; PIERCE JL, 1976, ACAD MANAGE REV, V1, P83, DOI DOI 10.5465/AMR.1976.4396611; Robinson JP, 1973, MEASURES SOCIAL PSYC; ROBINSON JP, 1969, MEASURES OCCUPATIONA; SIMS HP, 1976, ACAD MANAGE J, V19, P195, DOI 10.2307/255772; SIMS HP, 1976, COMMUNICATION    OCT; Smith P. C., 1969, MEASUREMENT SATISFAC; STEERS RM, 1977, J APPL PSYCHOL, V62, P472, DOI 10.1037//0021-9010.62.4.472; SZILAGYI AD, UNPUBLISHED; Turner A.N., 1965, IND JOBS WORKER INVE	27	36	36	0	26	ACAD MANAGEMENT	ADA	PO BOX 39 300 SOUTH UNION STREET, ADA, OH 45810-0039	0001-4273			ACAD MANAGE J	Acad. Manage. J.		1978	21	4					659	670		10.2307/255706				12	Business; Management	Business & Economics	GA015	WOS:A1978GA01500008	10239636				2019-01-18	
J	VALENZI, E; DESSLER, G				VALENZI, E; DESSLER, G			RELATIONSHIPS OF LEADER-BEHAVIOR, SUBORDINATE ROLE AMBIGUITY AND SUBORDINATE JOB SATISFACTION	ACADEMY OF MANAGEMENT JOURNAL			English	Article										VALENZI, E (reprint author), FLORIDA INT UNIV,SCH BUSINESS & ORG SCI,MIAMI,FL 33144, USA.						BEEHR TA, 1976, J APPL PSYCHOL, V61, P35, DOI 10.1037//0021-9010.61.1.35; Burns T, 1961, MANAGEMENT INNOVATIO; DESSLER G, 1973, THESIS CITY U NEW YO; DOWNEY HK, 1975, ACAD MANAGE J, V18, P253, DOI 10.2307/255528; Fiedler F. E., 1967, THEORY LEADERSHIP EF; GREENE CN, 1973, ADMIN SCI QUART, V18, P95, DOI 10.2307/2391931; House R. H., 1974, CONTINGENCY APPROACH, P29; HOUSE RJ, 1971, ADMIN SCI QUART, V16, P321, DOI 10.2307/2391905; HOUSE RJ, 1974, J CONTEMP BUS, V3, P81; HOUSE RJ, UNPUBLISHED; Kahn Robert L., 1964, ORG STRESS STUDIES R; KELLER RT, 1975, PERS PSYCHOL, V28, P57, DOI 10.1111/j.1744-6570.1975.tb00391.x; KERR S, 1974, ORGAN BEHAV HUM PERF, V12, P62, DOI 10.1016/0030-5073(74)90037-3; KERR S, 1974, PERS PSYCHOL, V27, P555, DOI 10.1111/j.1744-6570.1974.tb01176.x; LARSON LL, 1976, ACAD MANAGE J, V19, P628, DOI 10.2307/255796; RIZZO JR, 1970, ADMIN SCI QUART, V15, P150, DOI 10.2307/2391486; SCHRIESHEIM C, 1977, ACAD MANAGE J, V20, P398, DOI 10.2307/255413; SCHRIESHEIM CA, 1976, J APPL PSYCHOL, V61, P634, DOI 10.1037/0021-9010.61.5.634; SCHRIESHEIM CA, 1976, ORGAN BEHAV HUM PERF, V15, P297, DOI 10.1016/0030-5073(76)90043-X; STINSON JE, 1975, ACAD MANAGE J, V18, P242, DOI 10.2307/255527; Stogdill R.M., 1965, MANAGERS EMPLOYEES O; TOSI H, 1971, ACAD MANAGE J, V14, P7, DOI 10.2307/254707; VROOM V. H., 1976, HDB IND ORG PSYCHOL, P1527; WEED SE, 1976, J APPL PSYCHOL, V61, P58, DOI 10.1037//0021-9010.61.1.58	24	29	30	1	16	ACAD MANAGEMENT	ADA	PO BOX 39 300 SOUTH UNION STREET, ADA, OH 45810-0039	0001-4273			ACAD MANAGE J	Acad. Manage. J.		1978	21	4					671	678		10.2307/255707				8	Business; Management	Business & Economics	GA015	WOS:A1978GA01500009					2019-01-18	
J	SHERIDAN, JE; VREDENBURGH, DJ				SHERIDAN, JE; VREDENBURGH, DJ			PREDICTING LEADERSHIP-BEHAVIOR IN A HOSPITAL ORGANIZATION	ACADEMY OF MANAGEMENT JOURNAL			English	Article									WAYNE STATE UNIV,DETROIT,MI 48201	SHERIDAN, JE (reprint author), PENN STATE UNIV,UNIVERSITY PK,PA 16802, USA.						BADIN IJ, 1974, J APPL PSYCHOL, V59, P380, DOI 10.1037/h0036768; BASS BM, 1960, LEADERSHIP PSYCHOLOG; Cohen J., 1975, APPLIED MULTIPLE REG; DANSEREAU F, 1973, ORGAN BEHAV HUM PERF, V10, P184, DOI 10.1016/0030-5073(73)90012-3; DARLINGTON RB, 1968, PSYCHOL BULL, V69, P161, DOI 10.1037/h0025471; DURAND DE, 1976, ACAD MANAGE J, V19, P427, DOI 10.2307/255608; FRANKLIN JL, 1975, ADMIN SCI QUART, V20, P422, DOI 10.2307/2392001; GRAEN G, 1972, ORGAN BEHAV HUM PERF, V8, P262, DOI 10.1016/0030-5073(72)90050-5; GRAEN G, 1975, ORG ADM SCI, V6, P143; HUNT JG, 1971, P MIDWESTERN ACADEMY; Kahn R. L., 1964, ORG STRESS; KERR S, 1974, ORG BEHAVIOR HUMAN P, V12; KERR S, 1976, 7623 OH STAT U WORK; LARSON LL, 1976, ACAD MANAGE J, V19, P628, DOI 10.2307/255796; LYNCH RP, 1974, ADM SCI Q, V19, P338; MITCHELL TR, 1975, ACAD MANAGE J, V18, P623, DOI 10.2307/255692; Nunnally JC, 1967, PSYCHOMETRIC THEORY; OSBORN RN, 1975, ORG ADM SCI, V6, P27; OVERTON P, 1977, ADMIN SCI QUART, V22, P203, DOI 10.2307/2391956; PRITCHARD R, 1973, ORGANIZATIONAL BEHAV, V9, P110; PRYER MW, 1971, NURS RES, V2, P534; ROTTER JB, 1968, PSYCHOLOGICAL MONOGR, V80; SCHRIESHEIM C, 1974, PSYCHOL BULL, V81, P756, DOI 10.1037/h0037277; SCHRIESHEIM CA, 1975, PERS PSYCHOL, V28, P189, DOI 10.1111/j.1744-6570.1975.tb01380.x; SCHRIESHEIM CA, 1976, ORGAN BEHAV HUM PERF, V15, P297, DOI 10.1016/0030-5073(76)90043-X; SCHRIESHEIM CA, 1977, LEADERSHIP CUTTING E; SHERIDAN JE, 1978, J APPL PSYCHOL, V63, P89, DOI 10.1037/0021-9010.63.1.89; STOGDILL RM, 1963, MANUAL LEADER BEHAVI; WEED SE, 1976, J APPL PSYCHOL, V61, P58, DOI 10.1037//0021-9010.61.1.58	29	21	21	0	4	ACAD MANAGEMENT	ADA	PO BOX 39 300 SOUTH UNION STREET, ADA, OH 45810-0039	0001-4273			ACAD MANAGE J	Acad. Manage. J.		1978	21	4					679	689		10.2307/255708				11	Business; Management	Business & Economics	GA015	WOS:A1978GA01500010	10239637				2019-01-18	
J	ANDERSON, CR; SCHNEIER, CE				ANDERSON, CR; SCHNEIER, CE			LOCUS OF CONTROL, LEADER-BEHAVIOR AND LEADER PERFORMANCE AMONG MANAGEMENT STUDENTS	ACADEMY OF MANAGEMENT JOURNAL			English	Article										ANDERSON, CR (reprint author), UNIV MARYLAND,COLLEGE PK,MD 20742, USA.						ANDERSON CR, 1977, ACAD MANAGE J, V20, P260, DOI 10.2307/255399; Bales R. F, 1950, INTERACTION PROCESS; BASS BM, 1971, AM BEHAV SCI, V15, P221, DOI 10.1177/000276427101500206; BEATTY R, 1977, PERSONNEL ADM EXPT S; Berscheid E, 1969, INTERPERSONAL ATTRAC; DANSEREAU F, 1975, ORGAN BEHAV HUM PERF, V13, P46, DOI 10.1016/0030-5073(75)90005-7; DURAND D, 1974, J PSYCHOL, V88, P57, DOI 10.1080/00223980.1974.9915713; DURAND DE, 1976, ACAD MANAGE J, V19, P427, DOI 10.2307/255608; ESKILSON A, 1976, SOCIOMETRY, V39, P183, DOI 10.2307/2786511; Fiedler F. E., 1967, THEORY LEADERSHIP EF; GOODSTADT BE, 1973, J PERS SOC PSYCHOL, V27, P190, DOI 10.1037/h0034784; Gough H. G, 1957, MANUAL CALIFORNIA PS; Hare A. P, 1976, HDB SMALL GROUP RES; KERR S, 1974, ORGAN BEHAV HUM PERF, V12, P62, DOI 10.1016/0030-5073(74)90037-3; MEGARGEE EI, 1969, J APPL PSYCHOL, V53, P377, DOI 10.1037/h0028093; MITCHELL TR, 1975, ACAD MANAGE J, V18, P623, DOI 10.2307/255692; PRYER MW, 1971, NURS RES, V2, P534; ROTTER JB, 1966, PSYCHOLOGICAL MONOGR, V80; RUNYON KE, 1973, J APPL PSYCHOL, V57, P288, DOI 10.1037/h0034723; SCHEIN VE, 1973, J APPL PSYCHOL, V57, P95, DOI 10.1037/h0037128; Stogdill R., 1974, HDB LEADERSHIP; Stogdill RM, 1948, J PSYCHOL, V25, P35, DOI 10.1080/00223980.1948.9917362; TAYNOR J, 1973, J PERS SOC PSYCHOL, V28, P360, DOI 10.1037/h0035118	23	39	40	0	8	ACAD MANAGEMENT	ADA	PO BOX 39 300 SOUTH UNION STREET, ADA, OH 45810-0039	0001-4273			ACAD MANAGE J	Acad. Manage. J.		1978	21	4					690	698		10.2307/255709				9	Business; Management	Business & Economics	GA015	WOS:A1978GA01500011					2019-01-18	
J	BERRY, SE; WATSON, HJ; GREENWOOD, WT				BERRY, SE; WATSON, HJ; GREENWOOD, WT			SURVEY AS TO CONTENT OF INTRODUCTORY POM COURSE	ACADEMY OF MANAGEMENT JOURNAL			English	Article									UNIV GEORGIA,ATHENS,GA 30602	BERRY, SE (reprint author), AUBURN UNIV,AUBURN,AL 36830, USA.						*AM ASS COLL SCH B, 1976 1977 MEMB DIR; *AM ASS COLL SCH B, 1976, POL PROC STAND; BURCH EE, 1974, ACAD MANAGE J, V17, P144, DOI 10.2307/254778; Davis E. W., 1975, PRODUCTION INVENTORY, V16, P1; Davis E. W., 1974, PRODUCTION INVENTORY, V15, P1; Fryer J. S., 1973, BUSINESS EC REV, V20, P2; GEBHARD CN, 1976, MAR P POM ME WORKSH; GOETZ DE, 1959, ACADEMY MANAGEMENT J, V2, P7; GREEN TB, 1976, 36TH P ANN M AC MAN, P202; *INT CAS CLEAR HOU, 1976, OUTL PROD OP MAN COR; NILAND P, 1973, 1ST POM COURSE STUDY, P1; SKINNER W, 1973, 33RD P ANN M AC MAN, P556; *STAND POORS, 1976, REG CORP DIR EX; STARR MK, 1964, 24TH P ANN M AC MAN, P126; WHITE RA, 1976, AACSB B, V13, P50	15	7	8	0	2	ACAD MANAGEMENT	ADA	PO BOX 39 300 SOUTH UNION STREET, ADA, OH 45810-0039	0001-4273			ACAD MANAGE J	Acad. Manage. J.		1978	21	4					699	714		10.2307/255710				16	Business; Management	Business & Economics	GA015	WOS:A1978GA01500012					2019-01-18	
J	GRIFFIN, LJ				GRIFFIN, LJ			CAUSAL MODELING OF PSYCHOLOGICAL SUCCESS IN WORK ORGANIZATIONS	ACADEMY OF MANAGEMENT JOURNAL			English	Article									INDIANA UNIV,DEPT SOCIOL,BLOOMINGTON,IN 47401							ALWIN DF, 1975, AM SOCIOL REV, V40, P37, DOI 10.2307/2094445; ARGYRIS C, 1973, ADMIN SCI QUART, V18, P141, DOI 10.2307/2392060; Blalock H.M., 1964, CAUSAL INFERENCES NO; BLALOCK HM, 1967, AM J SOCIOL, V72, P675; BOHRNSTEDT G, 1971, SOCIOLOGICAL METHODO, P81; BOUDON R, 1965, AM SOCIOL REV, V30, P365, DOI 10.2307/2090717; BOWEN DD, 1973, ACAD MANAGE J, V16, P157, DOI 10.2307/255052; BREWER MB, 1970, SOCIOMETRY, V33, P1, DOI 10.2307/2786268; BURT RS, 1973, SOCIOL METHOD RES, V2, P131, DOI 10.1177/004912417300200201; Christ C. F., 1966, ECONOMETRIC MODELS M; COSTNER H, 1971, CAUSAL MODELS SOCIAL, P299; CRITES JO, 1969, VOCATIONAL PSYCHOLOG; CROWDER ND, 1974, SOCIOLOGY, V8, P19, DOI 10.1177/003803857400800102; DEEGAN J, 1975, SOCIOL METHOD RES, V3, P384, DOI 10.1177/004912417500300402; Deegan J, 1974, SOC SCI RES, V3, P235; Duncan O. D., 1970, SOCIOL METHODOL, V2, P38, DOI 10.2307/270782; DUNCAN OD, 1966, AM J SOCIOL, V72, P1, DOI 10.1086/224256; DUNCAN OD, 1968, AM J SOCIOL, V74, P119, DOI 10.1086/224615; DUNCAN OD, 1975, INTRO STRUCTURAL EQU; FARRAR DE, 1967, REV ECON STAT, V49, P92, DOI 10.2307/1937887; Finney M. J., 1972, SOCIOLOGICAL METHODS, V1, P175, DOI [DOI 10.1177/004912417200100202, 10.1177/004912417200100202]; FRANKLIN JL, 1975, ADMIN SCI QUART, V20, P422, DOI 10.2307/2392001; GEMMILL GR, 1972, ACAD MANAGE J, V15, P51, DOI 10.2307/254800; Goldberger A., 1973, STRUCTURAL EQUATION, P1; GOLDBERGER AS, 1970, AM SOCIOL REV, V35, P97, DOI 10.2307/2093856; GOODMAN LA, 1972, AM J SOCIOL, V77, P1035, DOI 10.1086/225258; GORDON RA, 1968, AM J SOCIOL, V73, P592, DOI 10.1086/224533; GREENE CN, 1973, ADMIN SCI QUART, V18, P95, DOI 10.2307/2391931; GREENE CN, 1973, J APPL PSYCHOL, V58, P95, DOI 10.1037/h0035417; GREENE CN, 1973, ACAD MANAGE J, V16, P159, DOI 10.2307/255053; GREENE CN, 1972, 15TH P ANN MIDW MAN; HALL DT, 1970, ADMIN SCI QUART, V15, P176, DOI 10.2307/2391488; HALL DT, 1972, ADMIN SCI QUART, V17, P340, DOI 10.2307/2392147; HALL DT, 1973, ORGANIZATIONAL CLIMA; Hauser R. M., 1972, SOC SCI RES, V1, P159, DOI DOI 10.1016/0049-089X(72)90092-0; HAUSER RM, 1975, AM SOCIOL REV, V40, P279, DOI 10.2307/2094459; HAUSER RM, 1971, SOCIOL METHODOL, P81, DOI DOI 10.2307/270819; Heise D. P., 1972, SOCIOLOGICAL METHODS, V1, P147, DOI DOI 10.1177/004912417200100201; Heise D. R, 1969, SOCIOL METHODOL, V1, P38; HM Blalock, 1971, CAUSAL MODELS SOCIAL; Johnston John, 1972, ECONOMETRIC METHODS; Kalleberg A. L, 1974, SOC SCI RES, V3, P299; KALLEBERG AL, 1975, J APPL PSYCHOL, V60, P1, DOI 10.1037/h0076267; Kerlinger F. N., 1973, MULTIPLE REGRESSION; LAND KC, 1970, SOC FORCES, V48, P506; LAND KC, 1969, SOCIOL METHODOL, P3; LAWLER EE, 1972, ORGAN BEHAV HUM PERF, V7, P265, DOI 10.1016/0030-5073(72)90018-9; Lewis-Beck M. S, 1974, SOC SCI RES, V3, P95; LINN RL, 1969, PSYCHOL BULL, V72, P307, DOI 10.1037/h0028107; Locke E. A., 1976, HDB IND ORG PSYCHOL, P1297; MASON WF, 1974, 7429 U WISC CTR DEM; MCPHERSON JM, 1974, SOC SCI RES, V3, P127; MOOD AM, 1971, AM EDUC RES J, V8, P191, DOI 10.2307/1162174; ORGAN DW, 1974, ACAD MANAGE J, V17, P69, DOI 10.2307/254772; ROCKWELL RC, 1975, SOCIOL METHOD RES, V3, P308, DOI 10.1177/004912417500300304; ROTTER JB, 1966, PSYCHOL MONOGR, V80, P1, DOI 10.1037/h0092976; SCHOENBERG R, 1972, SOCIOL METHODOL, P1; SIMON H., 1957, MODELS MAN; STANLEY JC, 1971, ED MEASUREMENT, P356; VROOM VH, 1964, WORK MOTIVATION; WERTS CE, 1973, AM J SOCIOL, V78, P1469, DOI 10.1086/225474; WERTS CE, 1971, CAUSAL MODELS SOCIAL, P400	62	21	21	0	2	ACAD MANAGEMENT	BRIARCLIFF MANOR	PACE UNIV, PO BOX 3020, 235 ELM RD, BRIARCLIFF MANOR, NY 10510-8020	0001-4273			ACAD MANAGE J	Acad. Manage. J.		1977	20	1					6	33		10.2307/255459				28	Business; Management	Business & Economics	CY750	WOS:A1977CY75000001					2019-01-18	
J	LONDON, M; OLDHAM, GR				LONDON, M; OLDHAM, GR			COMPARISON OF GROUP AND INDIVIDUAL INCENTIVE PLANS	ACADEMY OF MANAGEMENT JOURNAL			English	Article									UNIV ILLINOIS,DEPT BUSINESS ADM,URBANA,IL 61801; UNIV ILLINOIS,INST LABOR IND RELAT,DEPT BUS ADM,URBANA,IL 61801							BUCKLOW M, 1966, ADM SCI Q, V11, P59; Davis L. E., 1974, WORK QUALITY LIFE; Hays W, 1963, STATISTICS; JENKINS D, 1973, JOB POWER; LAWLER EE, 1971, PAY ORGANIZATIONAL E; LOCKE EA, 1968, ORGAN BEHAV HUM PERF, V3, P157, DOI 10.1016/0030-5073(68)90004-4; Marriott R, 1949, OCCUP PSYCHOL, V23, P47; Nash A.N., 1975, MANAGEMENT COMPENSAT; PRITCHAR.RD, 1973, ORGAN BEHAV HUM PERF, V10, P175, DOI 10.1016/0030-5073(73)90011-1; SCHWAB DP, 1973, J APPL PSYCHOL, V58, P308, DOI 10.1037/h0036304; Steiner I. D., 1972, GROUP PROCESS PRODUC; Strauss G., 1972, PERSONNEL HUMAN PROB; TRIST EL, 1963, ORGANIZATIONAL CHOIC; Whyte W. F., 1955, MONEY AND MOTIVATION	14	19	19	0	2	ACAD MANAGEMENT	BRIARCLIFF MANOR	PACE UNIV, PO BOX 3020, 235 ELM RD, BRIARCLIFF MANOR, NY 10510-8020	0001-4273			ACAD MANAGE J	Acad. Manage. J.		1977	20	1					34	41		10.2307/255460				8	Business; Management	Business & Economics	CY750	WOS:A1977CY75000002					2019-01-18	
J	DUNHAM, RB				DUNHAM, RB			REACTIONS TO JOB CHARACTERISTICS - MODERATING EFFECTS OF ORGANIZATION	ACADEMY OF MANAGEMENT JOURNAL			English	Article									UNIV WISCONSIN,GRAD SCH BUSINESS,MADISON,WI 53706							BEER M, 1968, PERSONNEL PSYCHOLOGY, V21, P299; BERGER CJ, 1976, ORGANIZATIONAL STRUC; BLOOD MR, 1967, J APPL PSYCHOL, V51, P284, DOI 10.1037/h0024683; BRIEF AP, 1975, J APPL PSYCHOL, V60, P182, DOI 10.1037/h0076548; COOLEY WW, 1971, MULTIVARIATE DATA AN; DUNHAM RB, 1975, J EXP EDUC, V43, P35, DOI 10.1080/00220973.1975.10806349; DUNHAM RB, 1976, J APPL PSYCHOL, V61, P404, DOI 10.1037/0021-9010.61.4.404; DUNHAM RB, 1975, THESIS U ILLINOIS; DUNHAM RB, IN PRESS; FORD RN, 1969, MOTIVATION THROUGH W; HACKMAN JR, 1971, J APPL PSYCHOL, V55, P259, DOI 10.1037/h0031152; HACKMAN JR, 1976, ORGAN BEHAV HUM PERF, V16, P250, DOI 10.1016/0030-5073(76)90016-7; HACKMAN JR, 1975, J APPL PSYCHOL, V60, P159, DOI 10.1037/h0076546; HERMAN JB, 1972, ORGAN BEHAV HUM PERF, V8, P84, DOI 10.1016/0030-5073(72)90038-4; HERMAN JB, 1975, ORGAN BEHAV HUM PERF, V13, P206, DOI 10.1016/0030-5073(75)90046-X; HERMAN JM, 1972, THESIS U ILLINOIS; KILBRIDGE MD, 1960, J BUS, V33, P357, DOI 10.1086/294366; MAHER JR, 1971, NEW PERSPECTIVES JOB; NEWMAN JE, 1975, ORGAN BEHAV HUM PERF, V14, P371, DOI 10.1016/0030-5073(75)90037-9; OLDHAM GR, 1976, HUM RELAT, V29, P559, DOI 10.1177/001872677602900605; PAUL WJ, 1969, HARVARD BUS REV, V47, P61; PORTER L W, 1965, Psychol Bull, V64, P23, DOI 10.1037/h0022166; SHEPARD JM, 1970, IND LABOR RELAT REV, V23, P207, DOI 10.2307/2521792; SMITH FJ, 1962, ANNUAL M AM PSYCHOLO; SMITH FJ, 1976, JSAS CATALOG SELECTE, V6; STEWART D, 1968, PSYCHOL BULL, V70, P160, DOI 10.1037/h0026143; STOGDILL RM, 1957, LEADERSHIP BEHAVIOR; STONE EF, 1975, J APPL PSYCHOL, V60, P57, DOI 10.1037/h0076357; STONE EF, 1974, 27 U CAL TECHN REP; TURNER AN, 1965, INDUSTRIAL JOBS WORK; WILD R, 1972, J APPL PSYCHOL, V56, P106, DOI 10.1037/h0032666	31	50	50	1	4	ACAD MANAGEMENT	BRIARCLIFF MANOR	PACE UNIV, PO BOX 3020, 235 ELM RD, BRIARCLIFF MANOR, NY 10510-8020	0001-4273			ACAD MANAGE J	Acad. Manage. J.		1977	20	1					42	65		10.2307/255461				24	Business; Management	Business & Economics	CY750	WOS:A1977CY75000003					2019-01-18	
J	KAVANAGH, MJ; HALPERN, M				KAVANAGH, MJ; HALPERN, M			IMPACT OF JOB LEVEL AND SEX-DIFFERENCES ON RELATIONSHIP BETWEEN LIFE AND JOB SATISFACTION	ACADEMY OF MANAGEMENT JOURNAL			English	Article									SUNY BINGHAMTON,SCH MANAGEMENT,BINGHAMTON,NY 13901							BRAYFIELD AH, 1957, J APPL PSYCHOL, V41, P201, DOI 10.1037/h0048095; Brayfield AH, 1951, J APPL PSYCHOL, V35, P307, DOI 10.1037/h0055617; DABAS ZS, 1958, PERS PSYCHOL, V11, P217, DOI 10.1111/j.1744-6570.1958.tb00016.x; FRIEND E, 1948, J APPLIED PSYCHOLOGY, V31, P65; Gurin G., 1960, AM VIEW THEIR MENTAL; Herzberg F., 1957, JOB ATTITUDES REV RE; IRIS B, 1972, J APPL PSYCHOL, V56, P301, DOI 10.1037/h0033095; LEVITIN TE, 1974, C AM ASSOC PUBLIC OP; MARINE G, 1974, MASTER BUSINESS ADMI, V8, P27; McClelland D., 1961, ACHIEVING SOC; MCPARTLAND TS, 1958, HUMAN ORGANIZATION, V17, P319; Peter L. S., 1969, PETER PRINCIPLE; PORTER L W, 1965, Psychol Bull, V64, P23, DOI 10.1037/h0022166; QUINN RP, 1974, 30 US DEP LAB MANP A; RUNDQUIST EA, 1936, PERSONALITY DEPRESSI; SINGER MT, 1974, PSYCHOSOM MED, V36, P1; SMOLOWE C, 1974, MASTER BUSINESS ADMI, V8, P32; *SRA, 1952, GEN MAN SRA EMPL INV; STEIN AH, 1973, PSYCHOL BULL, V80, P345, DOI 10.1037/h0035261; Weitz J, 1952, PERS PSYCHOL, V5, P201, DOI 10.1111/j.1744-6570.1952.tb01012.x	20	26	26	0	5	ACAD MANAGEMENT	BRIARCLIFF MANOR	PACE UNIV, PO BOX 3020, 235 ELM RD, BRIARCLIFF MANOR, NY 10510-8020	0001-4273			ACAD MANAGE J	Acad. Manage. J.		1977	20	1					66	73		10.2307/255462				8	Business; Management	Business & Economics	CY750	WOS:A1977CY75000004					2019-01-18	
J	PFEFFER, J; SALANCIK, GR				PFEFFER, J; SALANCIK, GR			ORGANIZATIONAL CONTEXT AND CHARACTERISTICS AND TENURE OF HOSPITAL ADMINISTRATORS	ACADEMY OF MANAGEMENT JOURNAL			English	Article									UNIV CALIF BERKELEY,SCH BUSINESS ADM,BERKELEY,CA 94720; UNIV ILLINOIS,COLL COMMERCE & BUS ADM,DEPT BUS ADM,URBANA,IL 61801							Carlson R.O., 1962, EXECUTIVE SUCCESSION; Cohen M. D., 1974, LEADERSHIP AMBIGUITY; CYERT RM, 1963, BEHAVIORAL THEORY FI; DEARBORN DC, 1958, SOCIOMETRY, V21, P140, DOI 10.2307/2785898; GAMSON WA, 1964, AM J SOCIOL, V70, P69, DOI 10.1086/223739; GORDON G, 1964, AM J SOCIOL, V70, P215, DOI 10.1086/223795; GOULDNER AW, 1954, PATTERNS INDUSTRIAL; GRUSKY O, 1963, AM J SOCIOL, V69, P21, DOI 10.1086/223507; GRUSKY O, 1961, AM J SOCIOL, V67, P263; Hall R. H., 1972, ORGANIZATIONS STRUCT; HELMICH DL, 1972, ADMIN SCI QUART, V17, P371, DOI 10.2307/2392150; HELMICH DL, 1974, ACAD MANAGE J, V17, P771, DOI 10.2307/255654; KRIESBERG L, 1962, AM J SOCIOL, V68, P355, DOI 10.1086/223355; LIEBERSON S, 1972, AM SOCIOL REV, V37, P117, DOI 10.2307/2094020; Newcomer Mabel, 1955, BIG BUSINESS EXECUTI; PERROW C, 1961, AM SOCIOL REV, V26, P854, DOI 10.2307/2090570; PFEFFER J, 1973, ADMIN SCI QUART, V18, P349, DOI 10.2307/2391668; PFEFFER J, 1973, ADMIN SCI QUART, V18, P449, DOI 10.2307/2392198; PUGH DS, 1969, ADMIN SCI QUART, V14, P91, DOI 10.2307/2391366; Roberts DR, 1959, EXECUTIVE COMPENSATI; THOMPSON JD, 1967, ORGANIZATIONS ACTION; ZALD MN, 1965, PAC SOCIOL REV, V8, P52; ZALD MN, 1972, ORG RES HLTH I, P51	23	66	67	0	11	ACAD MANAGEMENT	BRIARCLIFF MANOR	PACE UNIV, PO BOX 3020, 235 ELM RD, BRIARCLIFF MANOR, NY 10510-8020	0001-4273			ACAD MANAGE J	Acad. Manage. J.		1977	20	1					74	88		10.2307/255463				15	Business; Management	Business & Economics	CY750	WOS:A1977CY75000005	10305921				2019-01-18	
J	TERBORG, JR; PETERS, LH; ILGEN, DR; SMITH, F				TERBORG, JR; PETERS, LH; ILGEN, DR; SMITH, F			ORGANIZATIONAL AND PERSONAL CORRELATED OF ATTITUDES TOWARD WOMEN AS MANAGERS	ACADEMY OF MANAGEMENT JOURNAL			English	Article									PURDUE UNIV,DEPT PSYCHOL SCI,W LAFAYETTE,IN 47907; ROOSEVELT UNIV,SCH BUSINESS ADM,CHICAGO,IL 60605							BASS BM, 1971, AM BEHAV SCI, V15, P221, DOI 10.1177/000276427101500206; BOND JR, 1961, SOCIOMETRY, V24, P61, DOI 10.2307/2785929; BOWMAN GW, 1965, HARVARD BUS REV, V43, P52; BROVERMAN JK, 1972, J SOCIAL ISSUES, V28, P59; Crowne D, 1964, APPROVAL MOTIVE; DAY DR, 1972, PERS PSYCHOL, V25, P353, DOI 10.1111/j.1744-6570.1972.tb01110.x; DIPBOYE RL, 1975, J APPL PSYCHOL, V60, P39, DOI 10.1037/h0076352; EDWARDS AL, 1957, TECHNIQUES ATTITUDE; FIDELL LS, 1970, AM PSYCHOL, V25, P1094, DOI 10.1037/h0030294; HANSEN D, 1974, 82ND ANN CONV AM PSY; ILGEN DR, 1975, ORGAN BEHAV HUM PERF, V14, P154, DOI 10.1016/0030-5073(75)90019-7; KOOTZ ED, 1970, MONTHLY LABOR REV, V93, P3; LEVITIN T, 1971, AM BEHAV SCI, V15, P238; LIKERT R., 1932, ARCH PSYCHOLOGY, P44; LIRTZMAN SI, 1972, J APPL PSYCHOL, V56, P406, DOI 10.1037/h0033447; MAIER NRF, 1970, PERS PSYCHOL, V23, P455; MANHARDT PJ, 1972, PERS PSYCHOL, V25, P361, DOI 10.1111/j.1744-6570.1972.tb01111.x; MATTHEWS E, 1972, WOMEN WORK FORCE; MEGARGEE EI, 1969, J APPL PSYCHOL, V53, P377, DOI 10.1037/h0028093; ORTH CD, 1971, HARVARD BUS REV, V49, P139; PETERS LH, 1974, JSAS585 CAT SEL DOC; ROSEN B, 1974, HARVARD BUS REV, V52, P45; ROSEN B, 1975, ORGAN BEHAV HUM PERF, V14, P151, DOI 10.1016/0030-5073(75)90018-5; ROSEN B, 1974, J APPL PSYCHOL, V59, P511, DOI 10.1037/h0037323; ROSEN B, 1974, J APPL PSYCHOL, V59, P9, DOI 10.1037/h0035834; SCHEIN VE, 1973, J APPL PSYCHOL, V57, P95, DOI 10.1037/h0037128; SHAW EA, 1972, PERS PSYCHOL, V25, P333, DOI 10.1111/j.1744-6570.1972.tb01108.x; SPENCE JR, 1972, JSAS153 CAT SEL DOC; STAINES G, 1973, FEMALE EXPERIENCE; STEIN DD, 1956, J PERSONALITY SOCIAL, V1, P281; TERBORG JR, 1975, ORGAN BEHAV HUM PERF, V13, P352, DOI 10.1016/0030-5073(75)90056-2; TERBORG JR, UNPUBLISHED PAPER; *US DEP LAB WOM, 1971, FACT SHEET EARN GAP; VOGEL SR, 1970, DEV PSYCHOL, V3, P384, DOI 10.1037/h0030057	34	87	87	0	5	ACAD MANAGEMENT	BRIARCLIFF MANOR	PACE UNIV, PO BOX 3020, 235 ELM RD, BRIARCLIFF MANOR, NY 10510-8020	0001-4273			ACAD MANAGE J	Acad. Manage. J.		1977	20	1					89	100		10.2307/255464				12	Business; Management	Business & Economics	CY750	WOS:A1977CY75000006					2019-01-18	
J	COLTRIN, S; GLUECK, WF				COLTRIN, S; GLUECK, WF			EFFECT OF LEADERSHIP ROLES ON SATISFACTION AND PRODUCTIVITY OF UNIVERSITY-RESEARCH PROFESSORS	ACADEMY OF MANAGEMENT JOURNAL			English	Article									VIRGINIA POLYTECH INST & STATE UNIV,BLACKSBURG,VA 24061; UNIV GEORGIA,ATHENS,GA 30601							CLAYTON R, 1971, RES MANAGE, V14, P68; GLASER BG, 1963, ADMIN SCI QUART, V8, P379, DOI 10.2307/2390975; GLUECK WF, 1973, EDUCATIONAL ADMINIST, V10, P72; GLUECK WS, 1972, MANAGMENT SCI, V20, P240; HILL WW, 1967, ADMIN SCI QUART, V11, P548, DOI 10.2307/2391076; KOENIG H, 1969, SOCIOECONOMIC PLANNI, V2, P25; KORNFIELD LL, ED042427; KORNFIELD LL, 1969, MANAGEMENT INFORMATI; LEE SM, 1972, MANAGE SCI B-APPL, V18, pB395; *NAT SCI F, 1972, FED FUNDS NSF 72317, V21	10	7	7	0	3	ACAD MANAGEMENT	BRIARCLIFF MANOR	PACE UNIV, PO BOX 3020, 235 ELM RD, BRIARCLIFF MANOR, NY 10510-8020	0001-4273			ACAD MANAGE J	Acad. Manage. J.		1977	20	1					101	116		10.2307/255465				16	Business; Management	Business & Economics	CY750	WOS:A1977CY75000007					2019-01-18	
J	NORTON, SD; GUSTAFSON, DP; FOSTER, CE				NORTON, SD; GUSTAFSON, DP; FOSTER, CE			ASSESSMENT FOR MANAGEMENT POTENTIAL - SCALE DESIGN AND DEVELOPMENT, TRAINING EFFECTS AND RATER-RATEE SEX EFFECTS	ACADEMY OF MANAGEMENT JOURNAL			English	Article									UNIV MISSOURI,ST LOUIS,MO 63121; SOUTHWESTERN BELL TEL CO,HOUSTON,TX							BASS BM, 1971, AM BEHAVIORAL SCI, V15, P63; BLANZ F, 1972, PERS PSYCHOL, V25, P185, DOI 10.1111/j.1744-6570.1972.tb01098.x; BLUM ML, 1968, INDUSTRIAL PSYCHOLOG; BRIEF AP, 1975, P MIDWEST ACADEMY MA, P301; BRUMBACK GB, 1972, PERS PSYCHOL, V25, P567, DOI 10.1111/j.1744-6570.1972.tb00839.x; CAMPBELL JP, 1973, J APPL PSYCHOL, V57, P15, DOI 10.1037/h0034185; CAMPBELL JP, 1970, MANAGERIAL BEHAVIOR; CUMMINGS LL, 1973, PERFORMANCE ORGANIZA; DEAUX K, 1974, J PERS SOC PSYCHOL, V29, P80, DOI 10.1037/h0035733; DEAUX K, 1973, PSYCHOL REP, V32, P261, DOI 10.2466/pr0.1973.32.1.261; *DEV DIM, 1975, CAT ASS DEV EX; FERBER MA, 1973, AM J SOCIOL, V78, P995, DOI 10.1086/225416; GOLDBERG P, 1968, TRANS-ACT-SOC SCI MO, V5, P28; KAVANAGH MJ, 1971, PERS PSYCHOL, V24, P653, DOI 10.1111/j.1744-6570.1971.tb00379.x; MCGREGOR D, 1957, HARVARD BUS REV, V35, P89; NORTON SD, 1973, PERSONNEL, V50, P48; PHETERSON GI, 1971, J PERS SOC PSYCHOL, V19, P114, DOI 10.1037/h0031215; ROSEN B, 1973, J APPL PSYCHOL, V57, P44, DOI 10.1037/h0034198; ROSEN B, 1974, J APPL PSYCHOL, V59, P511, DOI 10.1037/h0037323; ROSEN B, 1974, J APPL PSYCHOL, V59, P9, DOI 10.1037/h0035834; SCHEIN VE, 1973, J APPL PSYCHOL, V57, P95, DOI 10.1037/h0037128; SMITH PC, 1963, J APPL PSYCHOL, V47, P149, DOI 10.1037/h0047060; TAYNOR J, 1973, J PERS SOC PSYCHOL, V28, P360, DOI 10.1037/h0035118; THOMPSON HL, 1969, THESIS CASE WESTERN; WHISLER TL, 1962, PERFORMANCE APPRAISA	25	12	12	1	4	ACAD MANAGEMENT	BRIARCLIFF MANOR	PACE UNIV, PO BOX 3020, 235 ELM RD, BRIARCLIFF MANOR, NY 10510-8020	0001-4273			ACAD MANAGE J	Acad. Manage. J.		1977	20	1					117	131		10.2307/255466				15	Business; Management	Business & Economics	CY750	WOS:A1977CY75000008					2019-01-18	
J	KERR, S; TOLLIVER, J; PETREE, D				KERR, S; TOLLIVER, J; PETREE, D			MANUSCRIPT CHARACTERISTICS WHICH INFLUENCE ACCEPTANCE FOR MANAGEMENT AND SOCIAL-SCIENCE JOURNALS	ACADEMY OF MANAGEMENT JOURNAL			English	Article									OHIO STATE UNIV,COLUMBUS,OH 43210							BEVERIDGE WIC, 1950, ART SCIENTIFIC INVES; DENZIN N, 1970, RESEARCH ACT; FORCESE DP, 1973, SOCIAL RESEARCH METH	3	63	63	0	4	ACAD MANAGEMENT	BRIARCLIFF MANOR	PACE UNIV, PO BOX 3020, 235 ELM RD, BRIARCLIFF MANOR, NY 10510-8020	0001-4273			ACAD MANAGE J	Acad. Manage. J.		1977	20	1					132	141		10.2307/255467				10	Business; Management	Business & Economics	CY750	WOS:A1977CY75000009					2019-01-18	
J	PITTS, RA				PITTS, RA			STRATEGIES AND STRUCTURES FOR DIVERSIFICATION	ACADEMY OF MANAGEMENT JOURNAL			English	Article									PENN STATE UNIV,UNIVERSITY PK,PA 16802							ANDREWS KR, 1969, BUSINESS POLICY, P172; Ansoff HI, 1965, CORPORATE STRATEGY; BERG NA, 1968, TEXTRON INC        A; Berg Norman A., 1973, BUSINESS POLICY TEAC, P298; Chandler A. D., 1962, STRATEGY STRUCTURE; CHANNON DF, 1971, THESIS HARVARD BUSIN; Pavan Robert J., 1972, THESIS HARVARD BUSIN; PITTS RA, 1976, J ECON BUS, V28, P181; PITTS RA, 1974, PERS J, V53, P338; POOLEY G, 1972, THESIS HARVARD BUSIN; RUKEYSER WS, 1968, FORTUNE          APR, P138; Rumelt R. P., 1974, STRATEGY STRUCTURE E; THANHEISER H, 1972, THESIS HARVARD BUSIN; Wrigley L, 1970, THESIS HARVARD BUSIN; 1975, FORBES          1201, P24	15	59	59	0	4	ACAD MANAGEMENT	BRIARCLIFF MANOR	PACE UNIV, PO BOX 3020, 235 ELM RD, BRIARCLIFF MANOR, NY 10510-8020	0001-4273			ACAD MANAGE J	Acad. Manage. J.		1977	20	2					197	208		10.2307/255394				12	Business; Management	Business & Economics	DJ126	WOS:A1977DJ12600001					2019-01-18	
J	DUNHAM, RB; ALDAG, RJ; BRIEF, AP				DUNHAM, RB; ALDAG, RJ; BRIEF, AP			DIMENSIONALITY OF TASK DESIGN AS MEASURED BY JOB DIAGNOSTIC SURVEY	ACADEMY OF MANAGEMENT JOURNAL			English	Article									UNIV WISCONSIN,MADISON,WI 53706; UNIV IOWA,IOWA CITY,IA 52240							BLOOD MR, 1967, J APPL PSYCHOL, V51, P284, DOI 10.1037/h0024683; DUNHAM RB, 1976, J APPL PSYCHOL, V61, P404, DOI 10.1037/0021-9010.61.4.404; HACKMAN JR, 1971, J APPL PSYCHOL, V55, P259, DOI 10.1037/h0031152; HACKMAN JR, 1975, J APPL PSYCHOL, V60, P159, DOI 10.1037/h0076546; HARMAN HH, 1971, MODERN FACTOR ANALYS; HARRIS CW, 1964, PSYCHOMETRIKA, V29, P347, DOI 10.1007/BF02289601; PIERCE JL, 1976, ACAD MANAGE REV, V1, P83, DOI DOI 10.5465/AMR.1976.4396611; SHEPARD JM, 1970, IND LABOR RELAT REV, V23, P207, DOI 10.2307/2521792; SIMS HP, 1976, ACAD MANAGE J, V19, P195, DOI 10.2307/255772; THURSTONE LL, 1947, MULTIPLE FACTOR ANAL; TURNER AN, 1965, INDUSTRIAL JOBS WORK	11	74	76	0	4	ACAD MANAGEMENT	BRIARCLIFF MANOR	PACE UNIV, PO BOX 3020, 235 ELM RD, BRIARCLIFF MANOR, NY 10510-8020	0001-4273			ACAD MANAGE J	Acad. Manage. J.		1977	20	2					209	223		10.2307/255395				15	Business; Management	Business & Economics	DJ126	WOS:A1977DJ12600002					2019-01-18	
J	HEROLD, DM				HEROLD, DM			2-WAY INFLUENCE PROCESSES IN LEADER-FOLLOWER DYADS	ACADEMY OF MANAGEMENT JOURNAL			English	Article									GEORGIA INST TECHNOL,COLL IND MANAGEMENT,ATLANTA,GA 30332							Blau P., 1964, EXCHANGE POWER SOCIA; DANSEREAU F, 1975, ORGAN BEHAV HUM PERF, V13, P46, DOI 10.1016/0030-5073(75)90005-7; DANSEREAU F, 1973, ORGAN BEHAV HUM PERF, V10, P184, DOI 10.1016/0030-5073(73)90012-3; EDWARDS AL, 1972, EXPT DESIGN PSYCHOLO; FARRIS GF, 1969, J APPL PSYCHOL, V53, P490, DOI 10.1037/h0028666; GREENE CN, 1975, J APPL PSYCHOL, V60, P187, DOI 10.1037/h0076552; HEROLD DM, 1974, THESIS YALE U; HOLLANDER EP, 1969, PSYCHOL BULL, V71, P387, DOI 10.1037/h0027347; HOMANS GC, 1961, SOCIAL BEHAVIOR ITS; HUMMEL TJ, 1971, PSYCHOL BULL, V76, P49, DOI 10.1037/h0031323; JOHNSTON J, 1963, ECONOMETRIC METHODS; KELMAN H, 1958, J CONFLICT RESOLUT, V2, P50; KORMAN AK, 1966, PERS PSYCHOL, V19, P349, DOI 10.1111/j.1744-6570.1966.tb00310.x; LOWIN A, 1968, ORGAN BEHAV HUM PERF, V3, P440, DOI 10.1016/0030-5073(68)90020-2; PORTER LW, 1975, BEHAVIOR ORGANIZATIO; VROOM VH, 1964, WORK MOTIVATION	16	34	34	0	4	ACAD MANAGEMENT	BRIARCLIFF MANOR	PACE UNIV, PO BOX 3020, 235 ELM RD, BRIARCLIFF MANOR, NY 10510-8020	0001-4273			ACAD MANAGE J	Acad. Manage. J.		1977	20	2					224	237		10.2307/255396				14	Business; Management	Business & Economics	DJ126	WOS:A1977DJ12600003					2019-01-18	
J	MILES, RH; PETTY, MM				MILES, RH; PETTY, MM			LEADER EFFECTIVENESS IN SMALL BUREAUCRACIES	ACADEMY OF MANAGEMENT JOURNAL			English	Article									YALE UNIV,SCH ORG & MANAGEMENT,NEW HAVEN,CT 06520; UNIV ALABAMA,FAC BEHAV STUDIES,UNIVERSITY,AL 35486							ARVEY RD, 1973, J VOCAT BEHAV, V3, P421, DOI 10.1016/0001-8791(73)90054-7; BLAU PM, 1966, AM SOCIOL REV, V31, P179, DOI 10.2307/2090903; CAMPBELL JP, 1970, MANAGERIAL BEHAVIOR; CAPLOW T, 1957, ADMINISTRATIVE SCI Q, V1, P485; CHILD J, 1973, ADMIN SCI QUART, V18, P168, DOI 10.2307/2392061; FLEISHMAN EA, 1962, PERS PSYCHOL, V15, P127, DOI 10.1111/j.1744-6570.1962.tb01855.x; FLEISHMAN EA, 1972, MANUAL SUPERVISORY B; FLEISHMAN EA, 1973, CURRENT DEVELOPMENTS; HALL RH, 1966, AM J SOCIOL, V72, P267, DOI 10.1086/224294; HENEMAN HG, 1972, PSYCHOL BULL, V78, P1, DOI 10.1037/h0033093; HOLDAWAY EA, 1975, ADMIN SCI QUART, V20, P37, DOI 10.2307/2392122; Hotelling H, 1940, ANN MATH STAT, V11, P271, DOI 10.1214/aoms/1177731867; House R. H., 1974, CONTINGENCY APPROACH, P29; HOUSE RJ, 1971, ADMIN SCI QUART, V16, P321, DOI 10.2307/2391905; KERR S, 1974, ORGAN BEHAV HUM PERF, V12, P62, DOI 10.1016/0030-5073(74)90037-3; KORMAN AK, 1966, PERS PSYCHOL, V19, P349, DOI 10.1111/j.1744-6570.1966.tb00310.x; KORMAN AK, 1973, J APPL PSYCHOL, V58, P384, DOI 10.1037/h0036306; MAHONEY TA, 1972, ORGANIZATIONAL BEHAV, V8, P89; OLMSTEAD JA, 1971, 1 NAT STUD SOC WELF, P89; Porter L.W., 1968, MANAGERIAL ATTITUDES; PUGH DS, 1969, ADMIN SCI QUART, V14, P91, DOI 10.2307/2391366; RIZZO JR, 1970, ADMIN SCI QUART, V15, P150, DOI 10.2307/2391486; SCHRIESHEIM C, 1974, PSYCHOL BULL, V81, P756, DOI 10.1037/h0037277; Smith P. C., 1969, MEASUREMENT SATISFAC; THOMAS EJ, 1959, AM SOCIOLOGICAL REV, V24, P11; VROOM VH, 1964, WORK MOTIVATION	26	12	12	0	3	ACAD MANAGEMENT	BRIARCLIFF MANOR	PACE UNIV, PO BOX 3020, 235 ELM RD, BRIARCLIFF MANOR, NY 10510-8020	0001-4273			ACAD MANAGE J	Acad. Manage. J.		1977	20	2					238	250		10.2307/255397				13	Business; Management	Business & Economics	DJ126	WOS:A1977DJ12600004					2019-01-18	
J	DESSLER, G; VALENZI, ER				DESSLER, G; VALENZI, ER			INITIATION OF STRUCTURE AND SUBORDINATE SATISFACTION - PATH-ANALYSIS TEST OF PATH-GOAL THEORY	ACADEMY OF MANAGEMENT JOURNAL			English	Article									FLORIDA INT UNIV,SCH BUSINESS & ORG SCI,MIAMI,FL 33144							ATKINSON JW, 1958, MOTIVES FANTASY ACTI; Blalock H.M., 1964, CAUSAL INFERENCES NO; Borgatta E., 1969, SOCIOLOGICAL METHODO; Costner Herbert L., 1971, SOCIOLOGICAL METHODO; DESSLER G, 1973, THESIS CITY U NEW YO; DOWNEY HK, 1975, ACAD MANAGE J, V18, P253, DOI 10.2307/255528; DUNCAN OD, 1966, AM J SOCIOL, V72, P1, DOI 10.1086/224256; House R. H., 1974, CONTINGENCY APPROACH, P29; HOUSE RJ, 1971, ADMIN SCI QUART, V16, P19, DOI 10.2307/2391283; HOUSE RJ, 1970, COMMUNICATION    JUN; RIZZO JR, 1970, ADMIN SCI QUART, V15, P150, DOI 10.2307/2391486; SIMS HP, 1975, J APPL PSYCHOL, V60, P194, DOI 10.1037/h0076553; STINSON JE, 1975, ACAD MANAGE J, V18, P242, DOI 10.2307/255527; Stogdill R.M., 1965, MANAGERS EMPLOYEES O; SZILAGYI AD, 1974, ACAD MANAGE J, V17, P622, DOI 10.2307/255642	15	14	14	1	6	ACAD MANAGEMENT	BRIARCLIFF MANOR	PACE UNIV, PO BOX 3020, 235 ELM RD, BRIARCLIFF MANOR, NY 10510-8020	0001-4273			ACAD MANAGE J	Acad. Manage. J.		1977	20	2					251	259		10.2307/255398				9	Business; Management	Business & Economics	DJ126	WOS:A1977DJ12600005					2019-01-18	
J	ANDERSON, CR; HELLRIEGEL, D; SLOCUM, JW				ANDERSON, CR; HELLRIEGEL, D; SLOCUM, JW			MANAGERIAL RESPONSE TO ENVIRONMENTALLY INDUCED STRESS	ACADEMY OF MANAGEMENT JOURNAL			English	Article									UNIV MARYLAND,COLLEGE PK,MD 20742; TEXAS A&M UNIV,COLLEGE STN,TX 77843; PENN STATE UNIV,UNIVERSITY PK,PA 16802							Allison Graham T, 1971, ESSENCE DECISION EXP; ANDERSON CR, 1976, J APPL PSYCHOL, V61, P30, DOI 10.1037/0021-9010.61.1.30; ANDERSON CR, 1975, ACAD MANAGE J, V18, P811, DOI 10.2307/255380; BATES F, 1963, SOCIAL PSYCHOLOGICAL; BOYLE RP, 1970, AM J SOCIOL, V75, P461, DOI 10.1086/224870; BOYLE RP, 1966, AM SOCIOL REV, V31, P843, DOI 10.2307/2091663; CAMPBELL JP, 1970, MANAGERIAL BEHAVIOR; DARREN D, 1975, AM I DECISION SCI P, P278; DOWNEY HK, 1975, ACAD MANAGE J, V18, P562, DOI 10.2307/255685; DYNES RR, 1970, ORGANIZED BEHAVIOR D; GHORPADE J, 1971, ASSESSMENT ORGANIZAT; JOE VC, 1971, PSYCHOL REP, V28, P619, DOI 10.2466/pr0.1971.28.2.619; Kahn R. L., 1964, ORGANIZATIONAL STRES; KERLE HH, 1958, CONSTRUCTION VALIDAT; Lazarus R.S., 1966, PSYCHOLOGICAL STRESS; LAZARUS RS, 1976, PATTERNS ADJUSTMENT; LICHTMAN CM, 1971, PSYCHOL BULL, V76, P271, DOI 10.1037/h0031636; LIPP L, 1968, J CONSULT CLIN PSYCH, V32, P72, DOI 10.1037/h0025453; McGrath J, 1976, HDB IND ORG PSYCHOL, P1351; MITCHELL TR, 1975, ACAD MANAGE J, V18, P623, DOI 10.2307/255692; PHARES EJ, 1968, J PERS, V36, P649; POSTMAN L, 1952, J ABNORM SOC PSYCH, V47, P213, DOI 10.1037/h0053993; ROTTER JB, 1966, PSYCHOLOGICAL MONOGR, V80; SMITH PC, 1968, ANNU REV PSYCHOL, V19, P467, DOI 10.1146/annurev.ps.19.020168.002343; STEERS RM, 1975, ADMIN SCI QUART, V20, P546, DOI 10.2307/2392022; WEINER B, 1966, J PERS SOC PSYCHOL, V3, P339, DOI 10.1037/h0022993	26	54	54	1	9	ACAD MANAGEMENT	BRIARCLIFF MANOR	PACE UNIV, PO BOX 3020, 235 ELM RD, BRIARCLIFF MANOR, NY 10510-8020	0001-4273			ACAD MANAGE J	Acad. Manage. J.		1977	20	2					260	272		10.2307/255399				13	Business; Management	Business & Economics	DJ126	WOS:A1977DJ12600006					2019-01-18	
J	RABINOWITZ, S; HALL, DT; GOODALE, JG				RABINOWITZ, S; HALL, DT; GOODALE, JG			JOB SCOPE AND INDIVIDUAL-DIFFERENCES AS PREDICTORS OF JOB INVOLVEMENT - INDEPENDENT OR INTERACTIVE	ACADEMY OF MANAGEMENT JOURNAL			English	Article									MICHIGAN STATE UNIV,DEPT PSYCHOL,E LANSING,MI 48823; NORTHWESTERN UNIV,GRAD SCH MANAGEMENT,DEPT ORG BEHAV,EVANSTON,IL 60201; YORK UNIV,DOWNSVIEW M3J 1P3,ONTARIO,CANADA							Argyris C., 1964, INTEGRATING INDIVIDU; BAIRD L, 1975, THESIS MICHIGAN STAT; BASS BM, 1965, ORGANIZATIONAL PSYCH; Blauner R., 1964, ALIENATION FREEDOM; BLOOD MR, 1967, J APPL PSYCHOL, V51, P284, DOI 10.1037/h0024683; Bray D. W., 1974, FORMATIVE YEARS BUSI; BRIEF AP, 1975, J APPL PSYCHOL, V60, P182, DOI 10.1037/h0076548; CHERRINGTON DJ, 1971, J APPL PSYCHOL, V55, P531, DOI 10.1037/h0032041; DUBIN R, 1956, SOC PROBL, V3, P131, DOI 10.1525/sp.1956.3.3.03a00010; FARRIS GF, 1971, PERS PSYCHOL, V24, P311; GANNON MJ, 1973, J APPL PSYCHOL, V57, P339, DOI 10.1037/h0034716; HACKMAN JR, 1971, J APPL PSYCHOL, V55, P259, DOI 10.1037/h0031152; HALL DT, 1970, ADMIN SCI QUART, V15, P176, DOI 10.2307/2391488; HALL DT, 1975, J APPL PSYCHOL, V60, P201, DOI 10.1037/h0076549; HALL DT, 1975, AM PSYCHOLOGICAL ASS; HINRICHS J, 1974, MOTIVATION CRISIS WI; HULIN CL, 1968, PSYCHOL BULL, V69, P41, DOI 10.1037/h0025356; JONES AP, 1975, J APPL PSYCHOL, V60, P146, DOI 10.1037/h0076359; LAWLER EE, 1970, J APPL PSYCHOL, V54, P305, DOI 10.1037/h0029692; LAWLER EE, 1973, MOTIVATION WORK ORGA; LODAHL TM, 1965, J APPL PSYCHOL, V49, P24, DOI 10.1037/h0021692; LODAHL TM, 1964, ADMIN SCI QUART, V8, P482, DOI 10.2307/2391429; MANNHEIM B, 1975, SOCIOL WORK OCCUP, V2, P79, DOI 10.1177/073088847500200104; MAURER JG, 1969, WORK ROLE INVOLVEMEN; McGregor D, 1960, HUMAN SIDE ENTERPRIS; NIE NH, 1975, STATISTICAL PACKAGE; PATCHEN M, 1965, I SOCIAL RES MONOGRA, V41, P1; ROTTER JB, 1966, PSYCHOL MONOGR, V80, P1, DOI 10.1037/h0092976; RUH RA, 1974, AM PSYCHOLOGICAL ASS; RUNYON KE, 1973, J APPL PSYCHOL, V57, P288, DOI 10.1037/h0034723; SCHNEIDER B, 1970, PERS PSYCHOL, V23, P313, DOI 10.1111/j.1744-6570.1970.tb01659.x; SCHULER RS, 1975, ACADEMY MANAGEMENT M; SCHWYHART WR, 1972, J APPL PSYCHOL, V56, P227, DOI 10.1037/h0033104; SIEGEL AL, 1973, ORGAN BEHAV HUM PERF, V9, P318, DOI 10.1016/0030-5073(73)90055-X; STONE EF, 1976, ORGAN BEHAV HUM PERF, V15, P147, DOI 10.1016/0030-5073(76)90034-9; STONE EF, 1975, J VOCAT BEHAV, V7, P215, DOI 10.1016/0001-8791(75)90062-7; VROOM VH, 1962, PERS PSYCHOL, V15, P159, DOI 10.1111/j.1744-6570.1962.tb01858.x; WANOUS JP, 1974, J APPL PSYCHOL, V59, P616, DOI 10.1037/h0037337; WOLLACK S, 1971, J APPL PSYCHOL, V55, P331, DOI 10.1037/h0031531	39	55	55	0	4	ACAD MANAGEMENT	BRIARCLIFF MANOR	PACE UNIV, PO BOX 3020, 235 ELM RD, BRIARCLIFF MANOR, NY 10510-8020	0001-4273			ACAD MANAGE J	Acad. Manage. J.		1977	20	2					273	281		10.2307/255400				9	Business; Management	Business & Economics	DJ126	WOS:A1977DJ12600007					2019-01-18	
J	HALL, DT; FOSTER, LW				HALL, DT; FOSTER, LW			PSYCHOLOGICAL SUCCESS CYCLE AND GOAL SETTING - GOALS, PERFORMANCE, AND ATTITUDES	ACADEMY OF MANAGEMENT JOURNAL			English	Article									NORTHWESTERN UNIV,GRAD SCH MANAGEMENT,DEPT ORG BEHAV,EVANSTON,IL 60201; MICHIGAN STATE UNIV,GRAD SCH BUSINESS ADM,E LANSING,MI 48823							BERLEW DE, 1966, ADM SCI Q, V11, P207, DOI DOI 10.2307/2391245; CAMPBELL JP, 1970, MANAGERIAL BEHAVIOR; HACKMAN JR, 1969, ACTA PSYCHOL, V31, P97, DOI 10.1016/0001-6918(69)90073-0; HALL DT, 1976, J VOCAT BEHAV, V9, P267, DOI 10.1016/0001-8791(76)90055-5; HALL DT, 1971, ORGAN BEHAV HUM PERF, V6, P50, DOI 10.1016/0030-5073(71)90005-5; HALL DT, 1973, ORGANIZATIONAL CLIMA; HAMNER WC, 1974, ORGAN BEHAV HUM PERF, V12, P217; HEISE OR, 1970, SOCIOLOGICAL METHODO, P3; HENSHAW RD, 1972, EXECUTIVE GAME; LAWLER EE, 1968, J APPL PSYCHOL, V52, P462, DOI 10.1037/h0026499; LAWLER EE, 1966, PERS PSYCHOL, V19, P153, DOI 10.1111/j.1744-6570.1966.tb02025.x; Lewin K, 1936, OCCUP-VOCAT GUID MA, V14, P926, DOI 10.1002/j.2164-5892.1936.tb00275.x; LOCKE EA, 1968, ORGAN BEHAV HUM PERF, V3, P157, DOI 10.1016/0030-5073(68)90004-4; LODAHL TM, 1965, J APPL PSYCHOL, V49, P24, DOI 10.1037/h0021692; NIE NH, 1975, STATISTICAL PACKAGE; Porter L.W., 1968, MANAGERIAL ATTITUDES; SCHRIESHEIM CA, 1975, TRAIN DEV J, V29, P11; SCHULER RS, 1975, 35TH P ANN M AC MAN, P149; STEDRY AC, 1966, BEHAV SCI, V11, P459, DOI 10.1002/bs.3830110605; WERTS CE, 1970, PSYCHOL BULL, V74, P193, DOI 10.1037/h0029778	20	56	56	3	8	ACAD MANAGEMENT	BRIARCLIFF MANOR	PACE UNIV, PO BOX 3020, 235 ELM RD, BRIARCLIFF MANOR, NY 10510-8020	0001-4273			ACAD MANAGE J	Acad. Manage. J.		1977	20	2					282	290		10.2307/255401				9	Business; Management	Business & Economics	DJ126	WOS:A1977DJ12600008					2019-01-18	
J	BAIRD, LS				BAIRD, LS			SELF AND SUPERIOR RATINGS OF PERFORMANCE - RELATED TO SELF-ESTEEM AND SATISFACTION WITH SUPERVISION	ACADEMY OF MANAGEMENT JOURNAL			English	Article									BOSTON UNIV,SCH MANAGEMENT,BOSTON,MA 02215							Coopersmith S., 1967, ANTECEDENTS SELF EST; DEUTSCH M, 1959, SOCIOMETRY, V22, P92; Festinger L., 1957, THEORY COGNITIVE DIS; HEIDER F, 1958, PSYCHOLOGY INTERPERS; HENEMAN HG, 1974, J APPL PSYCHOL, V59, P638, DOI 10.1037/h0037341; JACOBS L, 1971, J PERS SOC PSYCHOL, V17, P84, DOI 10.1037/h0030473; JONES SC, 1973, PSYCHOL BULL, V79, P185, DOI 10.1037/h0033957; KORMAN AK, 1970, J APPL PSYCHOL, V54, P31, DOI 10.1037/h0028656; KORMAN AK, 1968, J APPL PSYCHOL, V52, P484, DOI 10.1037/h0026498; MINER JB, 1968, BUS HORIZONS, V11, P83, DOI 10.1016/0007-6813(68)90077-3; NEWCOMB TM, 1956, AM PSYCHOL, V11, P575, DOI 10.1037/h0046141; PRIEN EP, 1962, PERS PSYCHOL, V15, P187, DOI 10.1111/j.1744-6570.1962.tb01860.x; Rosenberg M., 1965, SOC ADOLESCENT SELF; SECORD PF, 1961, PSYCHOL REV, V68, P21, DOI 10.1037/h0045625; SHRAUGER JS, 1975, J PERS, V43, P94, DOI 10.1111/j.1467-6494.1975.tb00574.x; SHRAUGER JS, 1975, PSYCHOL BULL, V82, P581, DOI 10.1037/h0076791; Siegel S., 1956, NONPARAMETRIC STATIS; Smith P. C., 1969, MEASUREMENT SATISFAC; STOTLAND E, 1957, J ABNORM SOC PSYCH, V54, P55, DOI 10.1037/h0048455; THORNTON GC, 1968, PERS PSYCHOL, V21, P441, DOI 10.1111/j.1744-6570.1968.tb02044.x; WILLIAMS WE, 1973, J APPL PSYCHOL, V57, P49, DOI 10.1037/h0034201; WILSON DT, 1965, J PERS SOC PSYCHOL, V1, P486, DOI 10.1037/h0021877	22	41	41	0	3	ACAD MANAGEMENT	BRIARCLIFF MANOR	PACE UNIV, PO BOX 3020, 235 ELM RD, BRIARCLIFF MANOR, NY 10510-8020	0001-4273			ACAD MANAGE J	Acad. Manage. J.		1977	20	2					291	300		10.2307/255402				10	Business; Management	Business & Economics	DJ126	WOS:A1977DJ12600009					2019-01-18	
J	KEELEY, M				KEELEY, M			SUBJECTIVE PERFORMANCE EVALUATION AND PERSON-ROLE CONFLICT UNDER CONDITIONS OF UNCERTAINTY	ACADEMY OF MANAGEMENT JOURNAL			English	Article									LOYOLA UNIV,CHICAGO,IL 60611							ANDREWS FM, 1972, ORGAN BEHAV HUM PERF, V8, P185, DOI 10.1016/0030-5073(72)90045-1; BARNARD C., 1938, FUNCTIONS EXECUTIVE; CLELAND DJ, 1975, SYSTEMS ANALYSIS PRO; DUNNETTE MD, 1966, PERSONNEL SELECTION; Festinger L, 1954, HUM RELAT, V7, P117, DOI 10.1177/001872675400700202; GREENE CN, 1972, ACAD MANAGE J, V15, P205, DOI 10.2307/254912; Kahn R. L., 1964, ORGANIZATIONAL STRES; LAWRENCE PR, 1967, ORGANIZATION ENVIRON; MINER JB, 1972, MANAGERIAL MOTIVATIO, P412; ORGAN DW, 1974, ACAD MANAGE J, V17, P69, DOI 10.2307/254772; PICKLE H, 1967, PERS PSYCHOL, V20, P165, DOI 10.1111/j.1744-6570.1967.tb02277.x; RIDGWAY VF, 1956, ADMIN SCI QUART, V1, P240, DOI 10.2307/2390989; RIZZO JR, 1970, ADMIN SCI QUART, V15, P150, DOI 10.2307/2391486; SALES SM, 1969, ADMIN SCI QUART, V14, P325, DOI 10.2307/2391126; SIMON HA, 1957, ADMINISTRATIVE BEHAV; SMITH PC, 1963, J APPL PSYCHOL, V47, P149, DOI 10.1037/h0047060; THOMPSON JD, 1967, ORGANIZATIONS ACTION; TOSI H, 1973, ADMIN SCI QUART, V18, P27, DOI 10.2307/2391925; WIKSTROM W, 1968, MANAGING OBJECTIVES; ZAJONC RB, 1965, SCIENCE, V149, P269, DOI 10.1126/science.149.3681.269	20	12	12	1	14	ACAD MANAGEMENT	BRIARCLIFF MANOR	PACE UNIV, PO BOX 3020, 235 ELM RD, BRIARCLIFF MANOR, NY 10510-8020	0001-4273			ACAD MANAGE J	Acad. Manage. J.		1977	20	2					301	314		10.2307/255403				14	Business; Management	Business & Economics	DJ126	WOS:A1977DJ12600010					2019-01-18	
J	BACHARACH, SB; AIKEN, M				BACHARACH, SB; AIKEN, M			COMMUNICATION IN ADMINISTRATIVE BUREAUCRACIES	ACADEMY OF MANAGEMENT JOURNAL			English	Article									CORNELL UNIV,NEW YORK STATE SCH IND & LABOR RELAT,ITHACA,NY 14853; UNIV WISCONSIN,DEPT SOCIOL,MADISON,WI 53706							ALLEN TJ, 1969, ADMIN SCI QUART, V14, P12, DOI 10.2307/2391357; BARNARD C., 1938, FUNCTIONS EXECUTIVE; BARNLUND DC, 1962, SOCIOMETRY, V26, P467; BLAU PM, 1968, AM J SOCIOL, V73, P453, DOI 10.1086/224506; BLAU PM, 1962, FORMAL ORGANIZATIONS; BREWER J, 1971, AM SOCIOL REV, V36, P475, DOI 10.2307/2093087; CHILD J, 1972, ADMIN SCI QUART, V17, P163, DOI 10.2307/2393951; EVAN WM, 1966, SOC FORCES, V45, P73, DOI 10.2307/2575780; GERARD HB, 1957, J PERS, V25, P475, DOI 10.1111/j.1467-6494.1957.tb01542.x; HAGE J, 1971, AM SOCIOL REV, V36, P860, DOI 10.2307/2093672; HAGE J, 1969, ADMIN SCI QUART, V14, P366, DOI 10.2307/2391132; HICKSON DJ, 1969, ADMIN SCI QUART, V14, P378, DOI 10.2307/2391134; Kahn R. L., 1964, ORGANIZATIONAL STRES; KATZ D, 1966, SOCIAL PSYCHOLOGY; LYNCH BP, 1974, ADMIN SCI QUART, V19, P338, DOI 10.2307/2391976; March J. G., 1958, ORGANIZATIONS; ORGAN DW, 1971, BUS HORIZONS, V14, P73, DOI 10.1016/0007-6813(71)90062-0; PERROW C, 1967, AM SOCIOL REV, V32, P194, DOI 10.2307/2091811; PORTER L. W., 1976, HDB IND ORG PSYCHOL, P1553; PUGH DS, 1968, ADMIN SCI QUART, V13, P65, DOI 10.2307/2391262; THOMPSON JD, 1967, ORGANIZATIONS ACTION; WOODWARD J, 1965, INDUSTRIAL ORGANIZAT	22	33	33	0	4	ACAD MANAGEMENT	BRIARCLIFF MANOR	PACE UNIV, PO BOX 3020, 235 ELM RD, BRIARCLIFF MANOR, NY 10510-8020	0001-4273			ACAD MANAGE J	Acad. Manage. J.		1977	20	3					365	377		10.2307/255411				13	Business; Management	Business & Economics	DT658	WOS:A1977DT65800001					2019-01-18	
J	ROBEY, D; BAKR, MM; MILLER, TS				ROBEY, D; BAKR, MM; MILLER, TS			ORGANIZATIONAL SIZE AND MANAGEMENT AUTONOMY - SOME STRUCTURAL DISCONTINUITIES	ACADEMY OF MANAGEMENT JOURNAL			English	Article									FLORIDA INT UNIV,MIAMI,FL 33144; UNIV WISCONSIN,KENOSHA,WI 53140; USMC,BARSTOW,CA							BLAU PM, 1976, ADM SCI Q, V21, P20; BLAU PM, 1971, STRUCTURE ORGANIZATI; CHILD J, 1973, ADMIN SCI QUART, V18, P168, DOI 10.2307/2392061; COCHRAN WG, 1957, BIOMETRICS, V13, P261, DOI 10.2307/2527916; EVERS FT, 1976, ADMIN SCI QUART, V21, P326, DOI 10.2307/2392049; FREEMAN J, 1975, AM SOCIOL REV, V40, P215, DOI 10.2307/2094346; Hall R. H., 1972, ORGANIZATIONS STRUCT; HALL RH, 1967, AM SOCIOL REV, V32, P903, DOI 10.2307/2092844; HICKSON DJ, 1969, ADMIN SCI QUART, V14, P378, DOI 10.2307/2391134; KLATZKY SR, 1970, ADMIN SCI QUART, V15, P428, DOI 10.2307/2391335; MANSFIELD R, 1973, ADMIN SCI QUART, V18, P477, DOI 10.2307/2392200; March J. G., 1958, ORGANIZATIONS; MEYER MW, 1972, AM SOCIOL REV, V37, P434, DOI 10.2307/2093182; MILLER TS, 1975, THESIS MARQUETTE U; PORTER DO, 1976, PUBLIC ADMIN REV, V36, P72, DOI 10.2307/974743; PRICE JL, 1968, ORGANIZATIONAL EFFEC; PUGH DS, 1968, ADMIN SCI QUART, V13, P65, DOI 10.2307/2391262; SMITH HF, 1957, BIOMETRICS, V13, P282, DOI 10.2307/2527917; STEERS RM, 1975, ADMIN SCI QUART, V20, P546, DOI 10.2307/2392022; WEBER M, 1947, THEORY SOCIAL ECONOM; Winer BJ, 1971, STATISTICAL PRINCIPL	21	8	8	0	3	ACAD MANAGEMENT	BRIARCLIFF MANOR	PACE UNIV, PO BOX 3020, 235 ELM RD, BRIARCLIFF MANOR, NY 10510-8020	0001-4273			ACAD MANAGE J	Acad. Manage. J.		1977	20	3					378	397		10.2307/255412				20	Business; Management	Business & Economics	DT658	WOS:A1977DT65800002					2019-01-18	
J	SCHRIESHEIM, C; GLINOW, MAV				SCHRIESHEIM, C; GLINOW, MAV			PATH-GOAL THEORY OF LEADERSHIP - THEORETICAL AND EMPIRICAL-ANALYSIS	ACADEMY OF MANAGEMENT JOURNAL			English	Article									KENT STATE UNIV,KENT,OH 44242; UNIV SO CALIF,DEPT MANAGEMENT,LOS ANGELES,CA 90007							DERMER J, UNPUBLISHED PAPER; DOWNEY HK, 1975, ACAD MANAGE J, V18, P253, DOI 10.2307/255528; DOWNEY HK, 1976, ORGAN BEHAV HUM PERF, V16, P156, DOI 10.1016/0030-5073(76)90011-8; GREENE CN, 1974, ACADEMY MANAGEMENT P, P47; HOUSE RJ, 1971, ADMIN SCI QUART, V16, P321, DOI 10.2307/2391905; HOUSE RJ, 1974, CONTINGENCY APPROACH; LEVANONI E, 1975, JUN OH STAT U U TOR; RIZZO JR, 1970, ADMIN SCI QUART, V15, P150, DOI 10.2307/2391486; SCHRIESHEIM C, 1974, PSYCHOL BULL, V81, P756, DOI 10.1037/h0037277; SCHRIESHEIM CA, 1975, PERS PSYCHOL, V28, P189, DOI 10.1111/j.1744-6570.1975.tb01380.x; SCHRIESHEIM CA, 1976, ORGAN BEHAV HUM PERF, V15, P297, DOI 10.1016/0030-5073(76)90043-X; SCHRIESHEIM JF, 1976, P EASTERN ACADEMY MA, P78; SHERIDAN JE, 1975, LEADERSHIP FRONTIERS; SIEGEL JJ, UNPUBLISHED PAPER; SIMS HP, 1975, J APPL PSYCHOL, V60, P194, DOI 10.1037/h0076553; STINSON JE, 1975, ACAD MANAGE J, V18, P242, DOI 10.2307/255527; STOGDILL RM, 1965, MANUAL JOB SATISFACT; SZILAGYI AD, 1974, ACAD MANAGE J, V17, P622, DOI 10.2307/255642	18	32	32	2	11	ACAD MANAGEMENT	BRIARCLIFF MANOR	PACE UNIV, PO BOX 3020, 235 ELM RD, BRIARCLIFF MANOR, NY 10510-8020	0001-4273			ACAD MANAGE J	Acad. Manage. J.		1977	20	3					398	405		10.2307/255413				8	Business; Management	Business & Economics	DT658	WOS:A1977DT65800003					2019-01-18	
J	IVANCEVICH, JM				IVANCEVICH, JM			DIFFERENT GOAL SETTING TREATMENTS AND THEIR EFFECTS ON PERFORMANCE AND JOB SATISFACTION	ACADEMY OF MANAGEMENT JOURNAL			English	Article									UNIV HOUSTON,HOUSTON,TX 77004							FAYOL H, 1949, GENERAL INDUSTRIAL M; FRENCH JRP, 1966, HUM RELAT, V19, P3, DOI 10.1177/001872676601900101; HAYS WL, 1973, STATISTICS SOCIAL ST; IVANCEVICH JM, 1974, ADMIN SCI QUART, V19, P563, DOI 10.2307/2391811; KIM JS, 1976, J APPL PSYCHOL, V61, P48, DOI 10.1037/0021-9010.61.1.48; LATHAM GP, 1975, ACAD MANAGE J, V18, P824, DOI 10.2307/255381; LATHAM GP, 1975, J APPL PSYCHOL, V60, P122, DOI 10.1037/h0076354; LATHAM GP, 1975, J APPL PSYCHOL, V60, P299, DOI 10.1037/h0076753; LATHAM GP, 1974, J APPL PSYCHOL, V59, P187, DOI 10.1037/h0036530; LATHAM GP, 1976, J APPL PSYCHOL, V61, P166, DOI 10.1037//0021-9010.61.2.166; Likert R., 1961, NEW PATTERNS MANAGEM; LOCKE EA, 1968, ORGAN BEHAV HUM PERF, V3, P157, DOI 10.1016/0030-5073(68)90004-4; LOCKE EA, 1968, J APPL PSYCHOL, V52, P104, DOI 10.1037/h0025492; LOCKE EA, 1966, AM J PSYCHOL, V79, P451, DOI 10.2307/1420886; LOWIN A, 1968, ORGAN BEHAV HUM PERF, V3, P68, DOI 10.1016/0030-5073(68)90028-7; McGregor D, 1960, HUMAN SIDE ENTERPRIS; Nunnally JC, 1967, PSYCHOMETRIC THEORY; Smith P. C., 1969, MEASUREMENT SATISFAC; STEERS RM, 1974, PSYCHOL BULL, V81, P434, DOI 10.1037/h0036775; VITELES MS, 1953, MOTIVATION MORALE IN; Vroom V. H., 1973, LEADERSHIP DECISION; VROOM VH, 1964, WORK MOTIVATION; WEXLEY KN, 1975, J APPL PSYCHOL, V60, P446, DOI 10.1037/h0076912; WINER BJ, 1973, STATISTICAL PRINCIPL; YUKL G, 1971, ORGAN BEHAV HUM PERF, V6, P414, DOI 10.1016/0030-5073(71)90026-2	25	64	64	1	13	ACAD MANAGEMENT	BRIARCLIFF MANOR	PACE UNIV, PO BOX 3020, 235 ELM RD, BRIARCLIFF MANOR, NY 10510-8020	0001-4273			ACAD MANAGE J	Acad. Manage. J.		1977	20	3					406	419		10.2307/255414				14	Business; Management	Business & Economics	DT658	WOS:A1977DT65800004					2019-01-18	
J	DUNHAM, RB; SMITH, FJ; BLACKBURN, RS				DUNHAM, RB; SMITH, FJ; BLACKBURN, RS			VALIDATION OF INDEX OF ORGANIZATIONAL REACTIONS WITH JDI, MSQ, AND FACES SCALES	ACADEMY OF MANAGEMENT JOURNAL			English	Article									UNIV WISCONSIN,GRAD SCH BUSINESS,MADISON,WI 53706; SEARS ROEBUCK & CO,CHICAGO,IL							CAMPBELL DT, 1959, PSYCHOL BULL, V56, P81, DOI 10.1037/h0046016; DUNHAM RB, 1975, J APPL PSYCHOL, V60, P629, DOI 10.1037//0021-9010.60.5.629; GILLET B, 1975, J APPL PSYCHOL, V60, P313, DOI 10.1037/h0076751; HARMAN HH, 1971, MODERN FACTOR ANALYS; KAVANAGH MJ, 1971, PSYCHOL BULL, V75, P34, DOI 10.1037/h0030412; Kunin T, 1955, PERS PSYCHOL, V8, P65, DOI 10.1111/j.1744-6570.1955.tb01189.x; SIEGEL S, 1975, NONPARAMETRIC STATIS; SMITH FJ, 1962, ANN M AM PSYCHOLOGIC; SMITH FJ, 1976, JSAS CATALOG SELECTE, V6; Smith P. C., 1969, MEASUREMENT SATISFAC; SMITH PC, 1957, 15TH P INT C PSYCHOL, P354; WEISS DJ, 1967, MANUAL MINNESOTA QUE, V22	12	101	101	0	23	ACAD MANAGEMENT	BRIARCLIFF MANOR	PACE UNIV, PO BOX 3020, 235 ELM RD, BRIARCLIFF MANOR, NY 10510-8020	0001-4273			ACAD MANAGE J	Acad. Manage. J.		1977	20	3					420	432		10.2307/255415				13	Business; Management	Business & Economics	DT658	WOS:A1977DT65800005					2019-01-18	
J	HOLMES, SL				HOLMES, SL			CORPORATE SOCIAL PERFORMANCE - PAST AND PRESENT AREAS OF COMMITMENT	ACADEMY OF MANAGEMENT JOURNAL			English	Article									UNIV TEXAS SAN ANTONIO, SAN ANTONIO, TX 78284 USA							*COMM EC DEV RES P, 1971, SOC RESP BUS CORP; Eilbert H., 1973, BUS HORIZONS, V16, P5; HOLMES SL, 1976, BUS HORIZONS, V19, P34, DOI 10.1016/0007-6813(76)90049-5; LOUIS AM, 1969, FORTUNE, V80, P92	4	26	28	3	10	ACAD MANAGEMENT	BRIARCLIFF MANOR	PACE UNIV, PO BOX 3020, 235 ELM RD, BRIARCLIFF MANOR, NY 10510-8020 USA	0001-4273	1948-0989		ACAD MANAGE J	Acad. Manage. J.		1977	20	3					433	438		10.2307/255416				6	Business; Management	Business & Economics	DT658	WOS:A1977DT65800006					2019-01-18	
J	WHITELY, W; ENGLAND, GW				WHITELY, W; ENGLAND, GW			MANAGERIAL VALUES AS A REFLECTION OF CULTURE AND PROCESS OF INDUSTRIALIZATION	ACADEMY OF MANAGEMENT JOURNAL			English	Article									UNIV KANSAS,LAWRENCE,KS 66044; UNIV MINNESOTA,MINNEAPOLIS,MN 55455							Adams T.E., 1969, WORLD JAPANESE BUSIN; BARRETT GV, 1972, 45 U ROCH MAN RES CT; BRISLIN RW, 1970, J CROSS CULT PSYCHOL, V1, P185, DOI 10.1177/135910457000100301; CHOWDHRY K, 1970, CHANGE ORGANIZATIONS; CLARK AW, 1970, J APPL PSYCHOL, V54, P1, DOI 10.1037/h0028665; EDGE A, 1974, 33RD ANN M AC MAN; ENGLAND GW, 1967, ACAD MANAGE J, V10, P53, DOI 10.2307/255244; ENGLAND GW, 1969, MANPOWER APPLIED PSY, V1, P63; GELLERMAN SW, 1967, COLUMBIA J WORLD BUS, V2, P59; Haire M., 1966, MANAGERIAL THINKING; HARBISON F, 1959, MANAGEMENT INDUSTRIA; HARMON HH, 1967, MODERN FACTOR ANALYS; KAISER HF, 1971, MULTIVAR BEHAV RES, V6, P409, DOI 10.1207/s15327906mbr0604_3; KERR C, 1964, INDUSTRIALISM INDUST; KLUCKHOHN FR, 1961, VARIATIONS VALUE ORI; Kroeber A. L., 1952, CULTURE CRITICAL REV; KUZNETS S, 1955, ECONOMIC GROWTH BRAZ; LINTON R, 1952, PROGR UNDERDEVELOPED; LUSK EJ, 1974, ACAD MANAGE J, V17, P549, DOI 10.2307/254656; Robock S., 1973, INT BUSINESS MULTINA; SCHEEWIND KA, 1971, PSYKOLOGISCHE BEITRA, V12, P214; Stinchcombe A.L., 1965, HDB ORG, P142; Ward Russel, 1965, AUSTRALIA; YOSHINO MY, 1968, JAPANS MANAGERIAL SY	24	48	48	0	4	ACAD MANAGEMENT	BRIARCLIFF MANOR	PACE UNIV, PO BOX 3020, 235 ELM RD, BRIARCLIFF MANOR, NY 10510-8020	0001-4273			ACAD MANAGE J	Acad. Manage. J.		1977	20	3					439	453		10.2307/255417				15	Business; Management	Business & Economics	DT658	WOS:A1977DT65800007					2019-01-18	
J	ORGAN, DW				ORGAN, DW			INFERENCES ABOUT TRENDS IN LABOR-FORCE SATISFACTION - CAUSAL-CORRELATIONAL ANALYSIS	ACADEMY OF MANAGEMENT JOURNAL			English	Article									INDIANA UNIV,SCH BUSINESS,BLOOMINGTON,IN 47401							ARMKNECHT PA, 1972, MON LABOR REV, V95, P31; Blalock H.M., 1964, CAUSAL INFERENCES NO; BLAUNER R, 1960, LABOR TRADE UNIONISM, P340; GALLUP GH, 1972, GALLUP POLL; GOODING J, 1972, JOB REVOLUTION; HERZBERG F, 1955, JOB ATTITUDES REV RE; HULIN CL, 1968, J APPL PSYCHOL, V52, P122, DOI 10.1037/h0025655; HULIN CL, 1966, J APPL PSYCHOL, V50, P280, DOI 10.1037/h0023613; HUNT JW, 1975, ACAD MANAGE J, V18, P690, DOI 10.2307/255372; PORTER LW, 1973, PSYCHOL BULL, V80, P151, DOI 10.1037/h0034829; Quinn R. P., 1974, 1972 73 QUALITY EMPL; SHEPPARD HL, 1972, WHERE HAVE ALL ROBOT; SIMON H., 1957, MODELS MAN; SMITH F, 1976, ACAD MANAGE J, V19, P462, DOI 10.2307/255611; *US BUR CENS, 1963, STAT ABSTR US; *US BUR CENS, HIST STAT US COL T 1; *US BUR LAB STAT, 1976, EMPL EARN, V22, P101; 1973, WORK AM	18	3	3	0	4	ACAD MANAGEMENT	BRIARCLIFF MANOR	PACE UNIV, PO BOX 3020, 235 ELM RD, BRIARCLIFF MANOR, NY 10510-8020	0001-4273			ACAD MANAGE J	Acad. Manage. J.		1977	20	4					510	519		10.2307/255353				10	Business; Management	Business & Economics	EC648	WOS:A1977EC64800001					2019-01-18	
J	NEWMAN, JE				NEWMAN, JE			DEVELOPMENT OF A MEASURE OF PERCEIVED WORK-ENVIRONMENT (PWE)	ACADEMY OF MANAGEMENT JOURNAL			English	Article									STATE FARM MUTUAL AUTOMOBILE INSURANCE CO,DEPT CORP RES,BLOOMINGTON,IL							Campbell J.P., 1976, HDB IND ORG PSYCHOL, P185; CAMPBELL JP, 1970, MANAGERIAL BEHAVIOR; CAMPBELL JP, 1971, SEP AM PSYCH ASS M W; HALL DT, 1976, PERSONNEL, V53, P10; HARMAN HH, 1971, MODERN FACTOR ANALYS; HELLRIEGEL D, 1974, ACAD MANAGE J, V17, P255, DOI 10.2307/254979; HOWE JG, 1974, 7502 COL STAT U IND; JAMES LR, 1974, PSYCHOL BULL, V81, P1096, DOI 10.1037/h0037511; JOYCE W, 1976, INTERACTION EFFECTS; LAFOLLETTE WR, 1975, PERS J, V54, P376; NEWMAN JE, 1975, ORGAN BEHAV HUM PERF, V14, P371, DOI 10.1016/0030-5073(75)90037-9; NEWMAN JE, 1976, 7627 STAT FARM MUT A; NEWMAN JE, 1974, DISS ABSTR         B, V35, P1438; NEWMAN JE, UNPUBLISHED MANUSCRI; Payne R. L., 1976, HDB IND ORG PSYCHOL, P1125; PAYNE RL, 1976, ORGAN BEHAV HUM PERF, V16, P45, DOI 10.1016/0030-5073(76)90006-4; SCHNEIDER B, 1975, PERS PSYCHOL, V28, P447, DOI 10.1111/j.1744-6570.1975.tb01386.x; SCHNEIDER B, 1974, 7 U MAR PSYCH DEP RE; SIMS HP, 1975, PERS PSYCHOL, V28, P19, DOI 10.1111/j.1744-6570.1975.tb00388.x; SMITH PC, 1974, J APPL PSYCHOL, V59, P99, DOI 10.1037/h0035828	20	34	37	0	3	ACAD MANAGEMENT	BRIARCLIFF MANOR	PACE UNIV, PO BOX 3020, 235 ELM RD, BRIARCLIFF MANOR, NY 10510-8020	0001-4273			ACAD MANAGE J	Acad. Manage. J.		1977	20	4					520	534		10.2307/255354				15	Business; Management	Business & Economics	EC648	WOS:A1977EC64800002					2019-01-18	
J	BASS, BM; MCGREGOR, DW; WALTERS, JL				BASS, BM; MCGREGOR, DW; WALTERS, JL			SELECTING FOREIGN PLANT SITES - ECONOMIC, SOCIAL AND POLITICAL CONSIDERATIONS	ACADEMY OF MANAGEMENT JOURNAL			English	Article									SUNY BINGHAMTON,SCH MANAGEMENT,BINGHAMTON,NY 13901; ROBFOGEL MILL ANDREWS CORP,ROCHESTER,NY							AHARONA Y, 1966, FOREIGN INVESTMENT D, P52; BASS BM, 1974, J APPL PSYCHOL, V59, P313, DOI 10.1037/h0036653; BASS BM, 1960, LEADERSHIP PSYCHOLOG; BELLI RD, 1970, SURVEY CURRENT BUSIN, V50, P18; Brown P. A., 1972, AIIE T, V4, P1; DANIELS JD, 1971, RECENT FOREIGN DIREC, P40; *NAT IND C BOARD, 1973, MULT NAT CORP STUD U, V2; PIPER JR, 1971, MSU BUS TOPICS-MICH, V19, P11; SCHOOLER RD, 1971, J INT BUSINESS STUDI, V1, P71; STOBAUGH R, 1969, HARVARD BUSINESS SEP, V47, P101; STOBAUGH R, 1969, HARVARD BUSINESS REV, V47, P132; Vernon R., 1966, Q J ECON, V80, P191; 1973, WALL STREET J   0625, P6; 1975, TODAYS MANAGER  1201	14	30	30	0	3	ACAD MANAGEMENT	BRIARCLIFF MANOR	PACE UNIV, PO BOX 3020, 235 ELM RD, BRIARCLIFF MANOR, NY 10510-8020	0001-4273			ACAD MANAGE J	Acad. Manage. J.		1977	20	4					535	551		10.2307/255355				17	Business; Management	Business & Economics	EC648	WOS:A1977EC64800003					2019-01-18	
J	IVANCEVICH, JM; MCMAHON, JT				IVANCEVICH, JM; MCMAHON, JT			STUDY OF TASK-GOAL ATTRIBUTES, HIGHER-ORDER NEED STRENGTH, AND PERFORMANCE	ACADEMY OF MANAGEMENT JOURNAL			English	Article									UNIV HOUSTON,HOUSTON,TX 77004							ALDERFER CP, 1969, ORGAN BEHAV HUM PERF, V4, P142, DOI 10.1016/0030-5073(69)90004-X; ATKINSON JW, 1958, MOTIVES FANTASY ACTI; BEEHR TA, 1976, J APPL PSYCHOL, V61, P41, DOI 10.1037/0021-9010.61.1.41; BLOOD MR, 1967, J APPL PSYCHOL, V51, P284, DOI 10.1037/h0024683; BRIEF AP, 1975, J APPL PSYCHOL, V60, P182, DOI 10.1037/h0076548; BRYAN JF, 1967, ORGAN BEHAV HUM PERF, V2, P258, DOI 10.1016/0030-5073(67)90021-9; CARROLL SJ, 1970, ADMIN SCI QUART, V15, P295, DOI 10.2307/2391619; FRENCH JRP, 1966, HUM RELAT, V19, P3, DOI 10.1177/001872676601900101; HACKMAN JR, 1971, J APPL PSYCHOL, V55, P259, DOI 10.1037/h0031152; HARMON HH, 1967, MODERN FACTOR ANALYS; IVANCEVICH JM, 1974, ADMIN SCI QUART, V19, P563, DOI 10.2307/2391811; KAISER HF, 1958, PSYCHOMETRIKA, V23, P187, DOI 10.1007/BF02289233; LATHAM GP, 1975, ACAD MANAGE J, V18, P824, DOI 10.2307/255381; LATHAM GP, 1975, J APPL PSYCHOL, V60, P299, DOI 10.1037/h0076753; LATHAM GP, 1974, J APPL PSYCHOL, V59, P187, DOI 10.1037/h0036530; LOCKE EA, 1969, J APPL PSYCHOL, V53, P59, DOI 10.1037/h0026736; LOCKE EA, 1966, J APPL PSYCHOL, V50, P286, DOI 10.1037/h0023550; LOCKE EA, 1967, PSYCHOL REP, V20, P1068, DOI 10.2466/pr0.1967.20.3c.1068; LOCKE EA, 1968, ORGAN BEHAV HUM PERF, V3, P157, DOI 10.1016/0030-5073(68)90004-4; LOCKE EA, 1967, J APPL PSYCHOL, V51, P324, DOI 10.1037/h0024771; LOCKE EA, 1967, J APPL PSYCHOL, V51, P120, DOI 10.1037/h0024471; LOCKE EA, 1970, ORGAN BEHAV HUM PERF, V5, P135, DOI 10.1016/0030-5073(70)90011-5; LOCKE EA, 1968, PSYCHOL BULL, V70, P474, DOI 10.1037/h0026737; LOCKE EA, 1969, ORGAN BEHAV HUM PERF, V4, P35, DOI 10.1016/0030-5073(69)90030-0; NIE NH, 1970, STATISTICAL PACKAGE; PAYNE RB, 1955, J EXP PSYCHOL, V50, P343, DOI 10.1037/h0045068; STEERS RM, 1975, ORGAN BEHAV HUM PERF, V13, P392, DOI 10.1016/0030-5073(75)90058-6; TURNER AN, 1965, INDUSTRIAL JOBS WORK; UMSTOT DD, 1976, J APPL PSYCHOL, V61, P379, DOI 10.1037/0021-9010.61.4.379; WANOUS JP, 1974, J APPL PSYCHOL, V59, P616, DOI 10.1037/h0037337; WEXLEY KN, 1975, J APPL PSYCHOL, V60, P446, DOI 10.1037/h0076912	31	38	38	0	4	ACAD MANAGEMENT	BRIARCLIFF MANOR	PACE UNIV, PO BOX 3020, 235 ELM RD, BRIARCLIFF MANOR, NY 10510-8020	0001-4273			ACAD MANAGE J	Acad. Manage. J.		1977	20	4					552	563		10.2307/255356				12	Business; Management	Business & Economics	EC648	WOS:A1977EC64800004					2019-01-18	
J	MOBLEY, WH; MEGLINO, BM				MOBLEY, WH; MEGLINO, BM			BEHAVIORAL CHOICE MODEL ANALYSIS OF BUDGET ALLOCATION BEHAVIOR OF ACADEMIC DEANS	ACADEMY OF MANAGEMENT JOURNAL			English	Article									UNIV S CAROLINA,CTR MANAGEMENT & ORG RES,RES LAB,COLUMBIA,SC 29208							DACHLER HP, 1973, J APPL PSYCHOL, V58, P397, DOI 10.1037/h0036297; HACKMAN JR, 1968, ORGAN BEHAV HUM PERF, V3, P417, DOI 10.1016/0030-5073(68)90018-4; LAWLER EE, 1973, ORGAN BEHAV HUM PERF, V9, P482, DOI 10.1016/0030-5073(73)90066-4; LAWLER EE, 1971, PAY ORGANIZATIONAL E; LOCKE EA, 1975, ANNU REV PSYCHOL, V26, P457, DOI 10.1146/annurev.ps.26.020175.002325; MITCHELL TR, 1974, PSYCHOL BULL, V81, P1053, DOI 10.1037/h0037495; SCHNEIDER J, 1976, ORGAN BEHAV HUM PERF, V16, P308, DOI 10.1016/0030-5073(76)90019-2; VROOM VH, 1964, WORK MOTIVATION; WAHBA MA, 1974, HUM RELAT, V27, P121	9	9	9	0	1	ACAD MANAGEMENT	BRIARCLIFF MANOR	PACE UNIV, PO BOX 3020, 235 ELM RD, BRIARCLIFF MANOR, NY 10510-8020	0001-4273			ACAD MANAGE J	Acad. Manage. J.		1977	20	4					564	572		10.2307/255357				9	Business; Management	Business & Economics	EC648	WOS:A1977EC64800005					2019-01-18	
J	DRAKE, B; MITCHELL, T				DRAKE, B; MITCHELL, T			EFFECTS OF VERTICAL AND HORIZONTAL POWER ON INDIVIDUAL MOTIVATION AND SATISFACTION	ACADEMY OF MANAGEMENT JOURNAL			English	Article									WAYNE STATE UNIV,DETROIT,MI 48201; UNIV WASHINGTON,SEATTLE,WA 98195							BEER M, 1976, HDB INDUSTRIAL ORGAN; BOX GEP, 1953, BIOMETRIKA, V40, P318, DOI 10.2307/2333350; Coch L, 1948, HUM RELAT, V1, P512, DOI 10.1177/001872674800100408; CYERT RM, 1963, BEHAVIORAL THEORY FI; D eci E., 1975, INTRINSIC MOTIVATION; Dalton M., 1959, MEN WHO MANAGE; HININGS CR, 1974, ADMIN SCI QUART, V19, P22, DOI 10.2307/2391786; LANDSBERGER HA, 1961, ADMIN SCI QUART, V6, P299, DOI 10.2307/2390705; LATHAM GP, 1975, J APPL PSYCHOL, V60, P299, DOI 10.1037/h0076753; LOWIN A, 1968, ORGAN BEHAV HUM PERF, V3, P68, DOI 10.1016/0030-5073(68)90028-7; MITCHELL TR, 1973, ACAD MANAGE J, V16, P670, DOI 10.2307/254699; OMEARA JT, 1961, HARVARD BUS REV, V39, P83; RONEN J, 1974, ORGAN BEHAV HUM PERF, V11, P28, DOI 10.1016/0030-5073(74)90003-8; SALANCIK GR, 1974, ADMIN SCI QUART, V19, P453, DOI 10.2307/2391803; SALES SM, 1966, PERS PSYCHOL, V19, P275, DOI 10.1111/j.1744-6570.1966.tb00303.x; SCOTT WG, HDB ORGANIZATIONAL D; STRAUSS G, 1964, HUM ORGAN, V23, P137, DOI 10.17730/humo.23.2.d854kj6174902k72; TANNENBAUM AS, 1968, CONTROL ORGANIZATION; THOMPSON JD, 1967, ORGANIZATIONS ACTION; Vroom V. H., 1973, LEADERSHIP DECISION; VROOM VH, 1970, HDB SOCIAL PSYCHOLOG, V5; VROOM VH, 1960, SOME PERSONALITY DET; VROOM VH, 1964, WORK MOTIVATION; WEXLEY KN, 1973, J APPL PSYCHOL, V58, P54, DOI 10.1037/h0035411; WOOD MT, 1973, PSYCHOL BULL, V79, P280, DOI 10.1037/h0034618	25	12	12	0	2	ACAD MANAGEMENT	BRIARCLIFF MANOR	PACE UNIV, PO BOX 3020, 235 ELM RD, BRIARCLIFF MANOR, NY 10510-8020	0001-4273			ACAD MANAGE J	Acad. Manage. J.		1977	20	4					573	591		10.2307/255358				19	Business; Management	Business & Economics	EC648	WOS:A1977EC64800006					2019-01-18	
J	MUCHINSKY, PM				MUCHINSKY, PM			ORGANIZATIONAL COMMUNICATION - RELATIONSHIPS TO ORGANIZATIONAL-CLIMATE AND JOB SATISFACTION	ACADEMY OF MANAGEMENT JOURNAL			English	Article									IOWA STATE UNIV,CTR IND RELAT,AMES,IA 50011							CAMPBELL JP, 1970, MANAGERIAL BEHAVIOR; COHEN A, 1965, SOCIOLOGICAL REV, V15, P342; DOWNEY HK, 1974, J BUS RES, V2, P233, DOI 10.1016/0148-2963(74)90001-0; FARACE RV, 1974, PERS PSYCHOL, V27, P1, DOI 10.1111/j.1744-6570.1974.tb02060.x; GOLEMBIEWSKI RT, 1970, ACAD MANAGE J, V13, P13, DOI 10.2307/254923; GUION RM, 1973, ORGAN BEHAV HUM PERF, V9, P120, DOI 10.1016/0030-5073(73)90041-X; HAND HH, 1973, ACAD MANAGE J, V16, P185, DOI 10.2307/255321; HELLRIEGEL D, 1974, ACAD MANAGE J, V17, P255, DOI 10.2307/254979; JAMES LR, 1974, PSYCHOL BULL, V81, P1096, DOI 10.1037/h0037511; JOHANNESSON RE, 1973, ORGAN BEHAV HUM PERF, V10, P118, DOI 10.1016/0030-5073(73)90008-1; Kunin T, 1955, PERS PSYCHOL, V8, P65, DOI 10.1111/j.1744-6570.1955.tb01189.x; LAFOLLETTE WR, 1975, ORGAN BEHAV HUM PERF, V13, P257, DOI 10.1016/0030-5073(75)90049-5; LAWLER EE, 1974, ORGAN BEHAV HUM PERF, V11, P139, DOI 10.1016/0030-5073(74)90010-5; LITWIN GH, 1968, MOTIVATION ORGANIZAT; MUCHINSKY PM, 1976, PERS PSYCHOL, V29, P371, DOI 10.1111/j.1744-6570.1976.tb00422.x; MUCHINSKY PM, 1977, J APPL PSYCHOL, V62, P184, DOI 10.1037//0021-9010.62.2.184; NIE NH, 1970, STATISTICAL PACKAGE; OREILLY CA, 1974, ORGAN BEHAV HUM PERF, V11, P253, DOI 10.1016/0030-5073(74)90018-X; PAYNE RL, 1976, ORGAN BEHAV HUM PERF, V16, P45, DOI 10.1016/0030-5073(76)90006-4; PAYNE RL, 1971, ORGAN BEHAV HUM PERF, V6, P77, DOI 10.1016/0030-5073(71)90006-7; PAYNE RL, UNPUBLISHED PAPER; PORTER L. W., 1976, HDB IND ORG PSYCHOL, P1553; READ WH, 1962, HUM RELAT, V15, P3, DOI 10.1177/001872676201500101; ROBERTS KH, 1974, ACAD MANAGE J, V17, P205, DOI 10.2307/254974; ROBERTS KH, 1974, J APPL PSYCHOL, V59, P321, DOI 10.1037/h0036660; SCHNEIDER B, 1975, PERS PSYCHOL, V28, P447, DOI 10.1111/j.1744-6570.1975.tb01386.x; SCHNEIDER B, 1972, J APPL PSYCHOL, V56, P447, DOI 10.1037/h0033756; Schneider B., 1970, PERS PSYCHOL, V23, P493; SIMS HP, 1975, PERS PSYCHOL, V28, P19, DOI 10.1111/j.1744-6570.1975.tb00388.x; Smith P. C., 1969, MEASUREMENT SATISFAC; SMITH PC, 1974, J APPL PSYCHOL, V59, P99, DOI 10.1037/h0035828; STOGDILL RM, 1957, LEADER BEHAVIOR ITS	32	75	77	4	29	ACAD MANAGEMENT	BRIARCLIFF MANOR	PACE UNIV, PO BOX 3020, 235 ELM RD, BRIARCLIFF MANOR, NY 10510-8020	0001-4273			ACAD MANAGE J	Acad. Manage. J.		1977	20	4					592	607		10.2307/255359				16	Business; Management	Business & Economics	EC648	WOS:A1977EC64800007					2019-01-18	
J	NIKOLAI, LA; BAZLEY, JD				NIKOLAI, LA; BAZLEY, JD			ANALYSIS OF ORGANIZATIONAL INTERACTION OF ACCOUNTING DEPARTMENTS	ACADEMY OF MANAGEMENT JOURNAL			English	Article									UNIV MISSOURI,SCH ACCOUNTANCY,COLUMBIA,MO 65201; UNIV DENVER,SCH ACCOUNTANCY,DENVER,CO 80210							BAZLEY JD, 1975, ACCOUNT REV, V50, P605; CAPLOW T, 1964, PRINCIPLES ORGANIZAT; CARPENTER CG, 1974, J ACCOUNTANCY, V137, P90; CROWLEY HW, 1956, APPRAISAL AM HIGHER; CRUM WF, 1971, J ACCOUNTANCY, V131, P88; EMERY FE, 1965, HUM RELAT, V18, P21, DOI 10.1177/001872676501800103; ESTES RW, 1970, ACCOUNTING EXCELLENC; EVAN WM, 1966, APPROACHES ORGANIZAT, P171; GOULDNER AW, 1960, AM SOCIOL REV, V25, P161, DOI 10.2307/2092623; GROSS GR, 1970, AM SOCIOL, V5, P25; Gullahorn JT, 1952, SOCIOMETRY, V15, P123, DOI 10.2307/2785450; HASSELBACK JR, 1974, ACCOUNTING FACULTY 1; HENRY WR, 1974, J BUSINESS, V47, P55; HOMANS GC, 1974, SOCIAL BEHAVIOR ITS; LEVINE S, 1961, ADMIN SCI QUART, V5, P583, DOI 10.2307/2390622; REID W, 1964, SOC SERV REV, V38, P418, DOI 10.1086/641655; SCHERMERHORN JR, 1975, ACAD MANAGE J, V18, P846, DOI 10.2307/255382; Selznick P., 1949, TVA GRASS ROOTS; SHEPARD RN, MULTIDIMENSIONAL SCA, V2; Shepard Roger N, 1972, MULTIDIMENSIONAL SCA, Vi; STEELE F, 1973, PHYSICAL SETTINGS OR; THOMPSON JD, 1958, AM SOCIOL REV, V23, P23, DOI 10.2307/2088620; THOMPSON JD, 1967, ORGANIZATIONS ACTION; Torgerson W.S, 1958, THEORY METHODS SCALI	24	1	1	0	4	ACAD MANAGEMENT	BRIARCLIFF MANOR	PACE UNIV, PO BOX 3020, 235 ELM RD, BRIARCLIFF MANOR, NY 10510-8020	0001-4273			ACAD MANAGE J	Acad. Manage. J.		1977	20	4					608	621		10.2307/255360				14	Business; Management	Business & Economics	EC648	WOS:A1977EC64800008					2019-01-18	
J	VARDI, Y; HAMMER, TH				VARDI, Y; HAMMER, TH			INTRA-ORGANIZATIONAL MOBILITY AND CAREER PERCEPTIONS AMONG RANK AND FILE EMPLOYEES IN DIFFERENT TECHNOLOGIES	ACADEMY OF MANAGEMENT JOURNAL			English	Article									CORNELL UNIV,NEW YORK STATE SCH IND & LABOR RELAT,ITHACA,NY 14853							CAMPBELL JP, 1976, HDB INDUSTRIAL ORGAN; DACHLER HP, 1973, J APPL PSYCHOL, V58, P397, DOI 10.1037/h0036297; GRAEN G, 1969, J APPLIED PSYCHOL 2, V53, P2; HALL DT, 1976, CAREERS ORGANIZATION; HALL DT, 1973, ORGANIZATIONAL CLIMA; Hall R. H., 1972, ORGANIZATIONS STRUCT; Kunin T, 1955, PERS PSYCHOL, V8, P65, DOI 10.1111/j.1744-6570.1955.tb01189.x; LAWLER EE, 1973, MOTIVATION WORK ORGA; MAHONEY TA, 1974, ORGAN BEHAV HUM PERF, V11, P122, DOI 10.1016/0030-5073(74)90009-9; MARTIN NH, 1955, J BUSINESS, V29, P101; MILKOVICH G, 1976, CAREERS ORGANIZATION; SCHEIN EH, 1971, J APPL BEHAV SCI, V7, P401, DOI 10.1177/002188637100700401; SCHNEIDER J, 1971, ORGAN BEHAV HUM PERF, V6, P441, DOI 10.1016/0030-5073(71)90027-4; SCOTT NR, 1975, ANNUAL REV SOCIOLOGY, P1; THOMPSON JD, 1967, ORGANIZATIONS ACTION; VROOM VH, 1964, WORK MOTIVATION; WEBER M, 1947, THEORY SOCIAL ECONOM; White H.C., 1970, CHAINS OPPORTUNITY S; WHITE T, 1974, SOCIAL INQUIRY, V33, P121	19	9	9	0	3	ACAD MANAGEMENT	BRIARCLIFF MANOR	PACE UNIV, PO BOX 3020, 235 ELM RD, BRIARCLIFF MANOR, NY 10510-8020	0001-4273			ACAD MANAGE J	Acad. Manage. J.		1977	20	4					622	634		10.2307/255361				13	Business; Management	Business & Economics	EC648	WOS:A1977EC64800009					2019-01-18	
J	BRIEF, AP; ALDAG, RJ; CHACKO, TI				BRIEF, AP; ALDAG, RJ; CHACKO, TI			MINER SENTENCE COMPLETION SCALE - APPRAISAL	ACADEMY OF MANAGEMENT JOURNAL			English	Article									UNIV IOWA,IOWA CITY,IA 52240; UNIV WISCONSIN,MADISON,WI 53706; OKLAHOMA STATE UNIV,STILLWATER,OK 74074							Aggarwal N. C., 1974, MANAGER MAN; BROWN RB, 1973, ACAD MANAGE J, V16, P868; CAMPBELL DT, 1959, PSYCHOL BULL, V56, P81, DOI 10.1037/h0046016; DUNNETTE MD, 1966, PERSONNEL SELECTION; ENGLAND GW, 1971, IND RELAT, V10, P211, DOI 10.1111/j.1468-232X.1971.tb00017.x; ENGLAND GW, 1967, ACAD MANAGE J, V10, P53, DOI 10.2307/255244; ENGLAND GW, 1974, J APPL PSYCHOL, V59, P411, DOI 10.1037/h0037320; ENGLAND GW, 1971, ACAD MANAGE J, V14, P425, DOI 10.2307/255058; ENGLAND GW, 1970, J CROSS CULT PSYCHOL, V1, P21, DOI 10.1177/002202217000100105; ENGLAND GW, 1968, J ASIATIC RESEARCH, V11; ENGLAND GW, 1973, PERSONAL VALUE SYSTE; ENGLAND GW, 1971, MANUAL DEVELOPMENT R; ENGLAND GW, 1976, MANAGER HIS VALUES I; GANTZ BS, 1972, 80TH P ANN CONV AM P, V7, P451; GANTZ BS, 1971, 79TH P ANN CONV AM P, V6, P129; Ghiselli EE, 1953, J APPL PSYCHOL, V37, P18, DOI 10.1037/h0059438; Ghiselli EE, 1954, PERS PSYCHOL, V7, P201, DOI 10.1111/j.1744-6570.1954.tb01593.x; GHISELLI EE, 1963, AM PSYCHOL, V18, P631, DOI 10.1037/h0048149; GHISELLI EE, 1963, PERS PSYCHOL, V16, P109, DOI 10.1111/j.1744-6570.1963.tb01259.x; GHISELLI EE, 1959, PERS PSYCHOL, V12, P535, DOI 10.1111/j.1744-6570.1959.tb01341.x; GHISELLI EE, 1968, PERS PSYCHOL, V21, P431, DOI 10.1111/j.1744-6570.1968.tb02043.x; GHISELLI EE, 1971, EXPLORATIONS MANAGER; LACEY L, 1974, ACAD MANAGE J, V17, P354, DOI 10.2307/254988; Miner J., 1964, SCORING GUIDE MINER; Miner J. B., 1965, PERS ADMIN, V28, P12; MINER JB, 1974, J VOCAT BEHAV, V5, P241, DOI 10.1016/0001-8791(74)90037-2; MINER JB, 1971, PERS PSYCHOL, V24, P191; MINER JB, 1974, J APPL PSYCHOL, V59, P31, DOI 10.1037/h0035832; MINER JB, 1974, J VOCAT BEHAV, V5, P197, DOI 10.1016/0001-8791(74)90032-3; MINER JB, 1974, PERS PSYCHOL, V27, P605, DOI 10.1111/j.1744-6570.1974.tb01180.x; MINER JB, 1971, ADMIN SCI QUART, V16, P351, DOI 10.2307/2391907; MINER JB, 1969, PERS GUID J, V47, P995, DOI 10.1002/j.2164-4918.1969.tb02889.x; MINER JB, 1968, PERS GUID J, V46, P586, DOI 10.1002/j.2164-4918.1968.tb03233.x; MINER JB, 1976, J APPL PSYCHOL, V61, P419, DOI 10.1037//0021-9010.61.4.419; MINER JB, 1968, EDUC ADMIN QUART, V4, P55, DOI 10.1177/0013161X6800400105; MINER JB, 1965, STUDIES MANAGEMENT E; ONDRACK DA, 1973, ACAD MANAGE J, V16, P423, DOI 10.2307/255003; STEGER JA, 1975, ACAD MANAGE J, V18, P453, DOI 10.2307/255676	38	14	14	0	17	ACAD MANAGEMENT	BRIARCLIFF MANOR	PACE UNIV, PO BOX 3020, 235 ELM RD, BRIARCLIFF MANOR, NY 10510-8020	0001-4273			ACAD MANAGE J	Acad. Manage. J.		1977	20	4					635	643		10.2307/255362				9	Business; Management	Business & Economics	EC648	WOS:A1977EC64800010					2019-01-18	
J	DUNHAM, RB; HAWK, DL				DUNHAM, RB; HAWK, DL			4-DAY-40-HOUR WEEK - WHO WANTS IT	ACADEMY OF MANAGEMENT JOURNAL			English	Article									UNIV WISCONSIN,SCH BUSINESS,MADISON,WI 53706; TRAVENOL LABS,DEERFIELD,IL							COOLEY WW, 1971, MULTIVARIATE DATA AN; DUNHAM RB, 1977, ACAD MANAGE J, V20, P420, DOI 10.2307/255415; DUNHAM RB, 1975, THESIS U ILLINOIS; FRASER DA, 1971, P 4 DAY WEEK FAD FUT; GANNON MJ, 1971, 24TH P ANN M IND REL, P116; GOODALE JG, 1975, J APPL PSYCHOL, V60, P33, DOI 10.1037/h0076345; HEDGES JN, 1975, MON LABOR REV, V98, P29; HELLRIEGEL D, 1972, MSU BUSINESS TOPICS, V20, P39; HODGE BJ, 1975, CALIF MANAGE REV, V18, P25, DOI 10.2307/41164622; KENNY MT, 1974, PUBLIC PERS MANAGE, V3, P159, DOI 10.1177/009102607400300212; MAHONEY TA, 1975, CALIF MANAGE REV, V18, P31, DOI 10.2307/41164623; NORD WR, 1973, J APPL PSYCHOL, V58, P60, DOI 10.1037/h0035419; Poor R., 1970, 4 DAYS 40 HOURS REPO; POOR R, 1973, 4 DAYS 40 HOURS OTHE; SMITH FJ, 1962, ANNUAL M AM PSYCHOLO; SMITH FJ, 1976, JSAS CATALOG SELECTE, V6; SPRAGUE LC, 1970, 4 DAYS 40 HOURS REPO; STEELE JL, 1970, 4 DAYS 40 HOURS REPO; STOGDILL RM, 1971, LEADERSHIP BEHAVIOR; TATSUOKA M, 1971, MULTIVARIATE ANALYSI; WALTERS RW, 1971, PERSONNEL ADMINISTRA, V16, P12; WHEELER K, 1972, 4 DAY WEEK; WILSON JA, 1971, P 4 DAY WEEK FAD FUT	23	11	11	0	1	ACAD MANAGEMENT	BRIARCLIFF MANOR	PACE UNIV, PO BOX 3020, 235 ELM RD, BRIARCLIFF MANOR, NY 10510-8020	0001-4273			ACAD MANAGE J	Acad. Manage. J.		1977	20	4					644	655		10.2307/255363				12	Business; Management	Business & Economics	EC648	WOS:A1977EC64800011					2019-01-18	
J	FOTTLER, MD				FOTTLER, MD			EMPLOYEE ACCEPTANCE OF A 4-DAY WORKWEEK	ACADEMY OF MANAGEMENT JOURNAL			English	Article									UNIV ALABAMA,FAC BEHAV STUDIES,GRAD SCH BUSINESS,UNIVERSITY,AL 35486							BARNETT HC, 1962, INNOVATION BASIS CUL; CALVASINA EJ, 1975, ACAD MANAGE J, V18, P604, DOI 10.2307/255689; FLIEGEL FC, 1966, AM J SOCIOL, V72, P235, DOI 10.1086/224292; Ford R. N., 1969, MOTIVATION WORK ITSE; FOTTLER MD, 1975, IND RELAT, V14, P327, DOI 10.1111/j.1468-232X.1975.tb00612.x; GANNON MJ, 1974, CALIF MANAGE REV, V17, P74, DOI 10.2307/41164563; GANNON MJ, 1972, 24TH P ANN WINT M IN, P116; GOLDBERGER AS, 1974, ECONOMETRIC THEORY; GOODALE JG, 1975, J APPL PSYCHOL, V60, P33, DOI 10.1037/h0076345; HAGE J, 1967, AM J SOCIOL, V72, P503, DOI 10.1086/224380; Havelock R., 1971, PLANNING INNOVATION; HODGE BJ, 1975, CALIF MANAGE REV, V18, P25, DOI 10.2307/41164622; IVANCEVICH JM, 1974, J APPL PSYCHOL, V59, P717, DOI 10.1037/h0037504; MAHONEY TA, 1975, CALIF MANAGE REV, V18, P31, DOI 10.2307/41164623; MOHR LB, 1969, AM POLIT SCI REV, V63, P111, DOI 10.2307/1954288; MULLET RO, 1972, 4 DAY WORKWEEK FAD F, P66; NIE NH, 1975, SPSS USERS GUIDE, P435; NORD WR, 1973, J APPL PSYCHOL, V58, P60, DOI 10.1037/h0035419; POOR R, 1973, 4 DAYS 40 HOURS; POOR R, 1973, 4 DAYS 40 HOURS, P69; Rogers E, 1962, DIFFUSION INNOVATION; Rogers E. M., 1971, COMMUNICATION INNOVA; TRUMBO DA, 1961, J APPL PSYCHOL, V45, P338, DOI 10.1037/h0040464; WHEELER KE, 1972, 4 DAY WORKWEEK; WILSON JA, 1972, 4 DAY WORKWEEK FAD F, P1; Zaltman Gerald, 1973, PROCESSES PHENOMENA	26	7	7	0	1	ACAD MANAGEMENT	BRIARCLIFF MANOR	PACE UNIV, PO BOX 3020, 235 ELM RD, BRIARCLIFF MANOR, NY 10510-8020	0001-4273			ACAD MANAGE J	Acad. Manage. J.		1977	20	4					656	668		10.2307/255364				13	Business; Management	Business & Economics	EC648	WOS:A1977EC64800012	10305922				2019-01-18	
J	STEERS, RM				STEERS, RM			FACTORS AFFECTING JOB ATTITUDES IN A GOAL-SETTING ENVIRONMENT	ACADEMY OF MANAGEMENT JOURNAL			English	Article									UNIV OREGON,GRAD SCH MANAGEMENT & BUSINESS,EUGENE,OR 97403							BRYAN JF, 1967, J APPL PSYCHOL, V51, P274, DOI 10.1037/h0024566; CARROLL SJ, 1970, ADMIN SCI QUART, V15, P295, DOI 10.2307/2391619; CRONBACH LJ, 1951, PSYCHOMETRIKA, V16, P297; FRENCH JRP, 1966, HUM RELAT, V19, P3, DOI 10.1177/001872676601900101; FRYER FW, 1964, EVALUATION LEVEL ASP; Gough H. G., 1965, ADJECTIVE CHECK LIST; GOUGH HG, 1960, PSYCHOL REP, V6, P107, DOI 10.2466/pr0.1960.6.1.107; HACKMAN JR, 1971, J APPL PSYCHOL, V55, P259, DOI 10.1037/h0031152; HAMNER WC, 1974, ORGAN BEHAV HUM PERF, V12, P217; HARMAN HH, 1967, MODERN FACTOR ANALYS; IVANCEVI.JM, 1970, PERS PSYCHOL, V23, P139, DOI 10.1111/j.1744-6570.1970.tb01642.x; IVANCEVICH JM, 1972, ADMIN SCI QUART, V17, P126, DOI 10.2307/2392101; KAISER HF, 1958, PSYCHOMETRIKA, V23, P187, DOI 10.1007/BF02289233; KLEINMUNTZ B, 1967, PERSONALITY MEASUREM; LATHAM GP, 1974, J APPL PSYCHOL, V59, P187, DOI 10.1037/h0036530; LOCKE EA, 1968, ORGAN BEHAV HUM PERF, V3, P157, DOI 10.1016/0030-5073(68)90004-4; LODAHL TM, 1965, J APPL PSYCHOL, V49, P24, DOI 10.1037/h0021692; MEYER HH, 1965, HARVARD BUS REV, V43, P123; MOBLEY WH, 1974, PERS J, V53, P423; Murray H. A., 1938, EXPLORATIONS PERSONA; Nunnally JC, 1967, PSYCHOMETRIC THEORY; Raia A. P., 1965, J MANAGE STUD, V2, P34; RAIA AP, 1966, CALIF MANAGE REV, V8, P49, DOI 10.2307/41165697; RAVEN BH, 1957, HUM RELAT, V10, P29, DOI 10.1177/001872675701000102; SCHWYHART WR, 1972, J APPL PSYCHOL, V56, P227, DOI 10.1037/h0033104; STEDRY AC, 1966, BEHAV SCI, V11, P459, DOI 10.1002/bs.3830110605; Steers R., 1973, THESIS U CALIFORNIA; Steers R. M., 1975, MOTIVATION WORK BEHA; STEERS RM, 1974, PSYCHOL BULL, V81, P434, DOI 10.1037/h0036775; STEERS RM, 1975, ORGAN BEHAV HUM PERF, V13, P392, DOI 10.1016/0030-5073(75)90058-6; TOSI HL, 1968, ACAD MANAGE J, V11, P415, DOI 10.2307/254890; WEISSENBERG P, 1968, J APPL PSYCHOL, V52, P469, DOI 10.1037/h0026501	32	42	42	0	2	ACAD MANAGEMENT	BRIARCLIFF MANOR	PACE UNIV, PO BOX 3020, 235 ELM RD, BRIARCLIFF MANOR, NY 10510-8020	0001-4273			ACAD MANAGE J	Acad. Manage. J.		1976	19	1					6	16		10.2307/255443				11	Business; Management	Business & Economics	BK027	WOS:A1976BK02700001					2019-01-18	
J	MCCALL, MW; LAWLER, EE				MCCALL, MW; LAWLER, EE			HIGH-SCHOOL STUDENTS PERCEPTIONS OF WORK	ACADEMY OF MANAGEMENT JOURNAL			English	Article									CTR CREAT LEADERSHIP,GREENSBORO,NC 27400; UNIV MICHIGAN,SURVEY RES CTR,ANN ARBOR,MI							Blauner R., 1964, ALIENATION FREEDOM; Carter M., 1966, INTO WORK; Hollingshead A. B., 1957, 2 FACTOR INDEX SOCIA; Kohn M. L., 1969, CLASS CONFORMITY STU; KOHN ML, 1973, AM SOCIOL REV, V38, P97, DOI 10.2307/2094334; KORNHAUSER A, 1965, MENTAL HLTH INDUSTRI; LEIBOW E, 1967, TALLYS CORNER; NIE NH, 1970, STATISTICAL PACKAGE; SALEH SD, 1973, J APPL PSYCHOL, V58, P131, DOI 10.1037/h0035421; VROOM VH, 1964, WORK MOTIVATION	10	9	9	0	6	ACAD MANAGEMENT	BRIARCLIFF MANOR	PACE UNIV, PO BOX 3020, 235 ELM RD, BRIARCLIFF MANOR, NY 10510-8020	0001-4273			ACAD MANAGE J	Acad. Manage. J.		1976	19	1					17	24		10.2307/255444				8	Business; Management	Business & Economics	BK027	WOS:A1976BK02700002					2019-01-18	
J	MILES, RH				MILES, RH			COMPARISON OF RELATIVE IMPACTS OF ROLE PERCEPTIONS OF AMBIGUITY AND CONFLICT BY ROLE	ACADEMY OF MANAGEMENT JOURNAL			English	Article									YALE UNIV,SCH ORG & MANAGEMENT,NEW HAVEN,CT 06520							BULLOCK RP, 1952, 70 OH STAT U BUR BUS; DARLINGTON RB, 1968, PSYCHOL BULL, V69, P161, DOI 10.1037/h0025471; GORDON RA, 1968, AM J SOCIOL, V73, P592, DOI 10.1086/224533; GUILFORD JP, 1973, FUNDAMENTAL STATISTI; HAMNER WC, 1973, ACADEMY MANAGEMENT P, P394; Hotelling H, 1940, ANN MATH STAT, V11, P271, DOI 10.1214/aoms/1177731867; HOUSE RJ, 1972, ORGAN BEHAV HUM PERF, V7, P467, DOI 10.1016/0030-5073(72)90030-X; IVANCEVICH JM, 1974, ACAD MANAGE J, V17, P28, DOI 10.2307/254768; Kahn R. L., 1964, ORGANIZATIONAL STRES; Kerlinger F. N., 1973, MULTIPLE REGRESSION; LAWRENCE PR, 1969, ORGANIZATION ENVIRON; LYONS TF, 1971, ORGAN BEHAV HUM PERF, V6, P99, DOI 10.1016/0030-5073(71)90007-9; MILES RH, 1975, J APPL PSYCHOL, V60, P334, DOI 10.1037/h0076754; MILES RH, 1975, ACAD MANAGE J, V18, P877, DOI 10.2307/255386; MILES RH, 1974, THESIS U N CAROLINA; ORGAN DW, 1974, J APPL PSYCHOL, V59, P101, DOI 10.1037/h0035826; PRUDEN HO, 1972, ADMIN SCI QUART, V17, P601, DOI 10.2307/2393837; PYM DLA, 1965, OCCUP PSYCHOL, V39, P103; RIZZO JR, 1970, ADMIN SCI QUART, V15, P150, DOI 10.2307/2391486; ROTTER JB, 1966, PSYCHOLOGICAL MONOGR, V80; TOSI H, 1970, J HUM RELAT, V18, P1068; TOSI H, 1971, ACAD MANAGE J, V14, P7, DOI 10.2307/254707	22	57	57	0	4	ACAD MANAGEMENT	BRIARCLIFF MANOR	PACE UNIV, PO BOX 3020, 235 ELM RD, BRIARCLIFF MANOR, NY 10510-8020	0001-4273			ACAD MANAGE J	Acad. Manage. J.		1976	19	1					25	35		10.2307/255445				11	Business; Management	Business & Economics	BK027	WOS:A1976BK02700003					2019-01-18	
J	WATSON, JG; BARONE, S				WATSON, JG; BARONE, S			SELF-CONCEPT, PERSONAL VALUES, AND MOTIVATIONAL ORIENTATIONS OF BLACK AND WHITE MANAGERS	ACADEMY OF MANAGEMENT JOURNAL			English	Article									WRIGHT STATE UNIV,COLL BUSINESS & ADM,DAYTON,OH; ST BONAVENTURE UNIV,MANAGEMENT SCI DEPT,ST BONAVENTURE,NY 14778							ATHOS AG, 1968, BEHAVIOR ORGANIZATIO; BILLS RE, 1951, J CONSULT PSYCHOL, V15, P257; Butler JM, 1954, PSYCHOTHERAPY PERSON; DALTON M, 1959, MEN WHO CHANGE; DEUTSCH M, 1960, 2 SOC APPL ANTHR MON; ENGLAND GW, 1967, ACAD MANAGE J, V10, P53, DOI 10.2307/255244; FROE D, 1964, J NEGRO EDUCATION, V33, P290; GOODMAN RA, 1969, CALIF MANAGE REV, V11, P27, DOI 10.2307/41164187; Grambs J. D., 1965, NEGRO SELF CONCEPT I, P11; GUTH WD, 1965, HARVARD BUS REV, V43, P123; HECKHAUSEN H, 1967, ANATOMY ACHIEVEMENT; LOTT A, 1963, NEGRO WHITE YOUTH; MAIER NRF, 1973, PSYCHOLOGY INDUSTRIA; MCCLELLAND DC, 1970, J INT AFF, V24, P29; MCKELVEY W, 1967, UCLA15 GRAD SCH BUS; MCMURRY RN, 1963, HARVARD BUS REV, V40, P130; ROGERS CR, 1958, PERS GUID J, V37, P6, DOI 10.1002/j.2164-4918.1958.tb01147.x; VEROFF J, 1960, PSYCHOLOGICAL MONOGR; WHYTE WH, 1956, ORGANIZATION MAN	19	11	11	0	3	ACAD MANAGEMENT	BRIARCLIFF MANOR	PACE UNIV, PO BOX 3020, 235 ELM RD, BRIARCLIFF MANOR, NY 10510-8020	0001-4273			ACAD MANAGE J	Acad. Manage. J.		1976	19	1					36	48		10.2307/255446				13	Business; Management	Business & Economics	BK027	WOS:A1976BK02700004	10243755				2019-01-18	
J	MILUTINOVICH, JS; TSAKLANGANOS, AA				MILUTINOVICH, JS; TSAKLANGANOS, AA			IMPACT OF PERCEIVED COMMUNITY PROSPERITY ON JOB-SATISFACTION OF BLACK AND WHITE WORKERS	ACADEMY OF MANAGEMENT JOURNAL			English	Article									TEMPLE UNIV,SCH BUSINESS ADM,PHILADELPHIA,PA 19122							BLOOD MR, 1967, J APPL PSYCHOL, V51, P284, DOI 10.1037/h0024683; BLOOM R, 1967, J APPL PSYCHOL, V51, P287; CAMPBELL DT, 1959, PSYCHOL BULL, V56, P81, DOI 10.1037/h0046016; CHAMPAGNE JE, 1967, PERS GUID J, V45, P429, DOI 10.1002/j.2164-4918.1967.tb03108.x; CURETON EE, 1962, J APPL PSYCHOL, V46, P230, DOI 10.1037/h0046978; Herzberg F, 1959, MOTIVATION WORK; HULIN CL, 1968, PSYCHOL BULL, V69, P41, DOI 10.1037/h0025356; HULIN CL, 1966, J APPL PSYCHOL, V50, P185, DOI 10.1037/h0023082; KARPIK L, 1968, HUM RELAT, V21, P327, DOI 10.1177/001872676802100402; KARPIK L, 1966, SOCIOLOGIE TRAVAIL, V2, P179; KATZELL RA, 1961, J APPL PSYCHOL, V45, P65, DOI 10.1037/h0040611; KATZELL RA, 1970, 41800634 CONTR; KENDALL LM, 1963, THESIS CORNELL U; LOCKE EA, 1969, ORGAN BEHAV HUM PERF, V4, P309, DOI 10.1016/0030-5073(69)90013-0; MEAD M, 1962, RETROSPECTS PROSPECT; MILUTINOVICH JS, 1975, READINGS MINORITY GR; OREILLY CA, 1973, J APPL PSYCHOL, V57, P295, DOI 10.1037/h0034718; Pettigrew T. F., 1964, PROFILE NEGRO AM; RUSSELL JC, 1968, PERSONAL PRACTICE B, V24, P28; SLOCUM JW, 1972, J APPL PSYCHOL, V56, P28, DOI 10.1037/h0032136; Smith P. C., 1969, MEASUREMENT SATISFAC; SMITH PC, 1974, J APPL PSYCHOL, V59, P99, DOI 10.1037/h0035828; TURNER AN, 1965, INDUSTRIAL JOBS WORK; VROOM VH, 1964, WORK MOTIVATION; WILD R, 1972, J APPL PSYCHOL, V56, P106, DOI 10.1037/h0032666; Winer BJ, 1971, STATISTICAL PRINCIPL; Worthy JC, 1950, AM SOCIOL REV, V15, P169, DOI 10.2307/2086780	27	3	3	0	20	ACAD MANAGEMENT	BRIARCLIFF MANOR	PACE UNIV, PO BOX 3020, 235 ELM RD, BRIARCLIFF MANOR, NY 10510-8020	0001-4273			ACAD MANAGE J	Acad. Manage. J.		1976	19	1					49	65		10.2307/255447				17	Business; Management	Business & Economics	BK027	WOS:A1976BK02700005					2019-01-18	
J	BUEHLER, VM; SHETTY, YK				BUEHLER, VM; SHETTY, YK			MANAGERIAL RESPONSE TO SOCIAL-RESPONSIBILITY CHALLENGE	ACADEMY OF MANAGEMENT JOURNAL			English	Article									UTAH STATE UNIV,LOGAN,UT 84321							AAKER DA, 1972, HARVARD BUS REV, V50, P114; ACKERMAN RW, 1973, HARVARD BUS REV, V51, P88; ADIZES I, 1973, ACAD MANAGE J, V16, P112, DOI 10.2307/255047; BURCK G, 1973, FORTUNE, V87, P114; BURCK G, 1973, FORTUNE, V87, P214; BURCK G, 1973, FORTUNE, V87, P216; BURCK G, 1973, FORTUNE, V87, P218; *C BOARD INC, 1973, 609 STUD; *C BOARD INC, 1970, 507 STUD; *C BOARD INC, 1969, SPA5 STUD; COHEN J, 1970, HARVARD BUSINESS REV, V48, P68; Committee for Economic Development, 1971, SOC RESP BUS CORP; Eilbert H., 1973, BUS HORIZONS, V16, P5; GALBRAITH JK, 1973, ECONOMICS PUBLIC PUR; Jacoby N. H., 1973, CORPORATE POWER SOCI; KOONTZ H, 1971, BUS HORIZONS, V14, P75, DOI 10.1016/0007-6813(71)90093-0; MCGUIRE JW, 1971, CALIF MANAGE REV, V13, P79, DOI 10.2307/41164322; MONSEN J, 1974, CONT MANAGEMENT ISSU, P615; MOSS FE, 1972, INITIATIVES CORPORAT; ROCKEFELLER D, 1974, CREATIVE MANAGEMENT; WEBSTER FE, 1973, HARVARD BUS REV, V51, P89	21	22	23	1	4	ACAD MANAGEMENT	BRIARCLIFF MANOR	PACE UNIV, PO BOX 3020, 235 ELM RD, BRIARCLIFF MANOR, NY 10510-8020	0001-4273			ACAD MANAGE J	Acad. Manage. J.		1976	19	1					66	78		10.2307/255448				13	Business; Management	Business & Economics	BK027	WOS:A1976BK02700006					2019-01-18	
J	PEKAR, PP; BURACK, EH				PEKAR, PP; BURACK, EH			MANAGEMENT CONTROL OF STRATEGIC PLANS THROUGH ADAPTIVE TECHNIQUES	ACADEMY OF MANAGEMENT JOURNAL			English	Article									ESTECH INC,CHICAGO,IL 60600; ILLINOIS INST TECHNOL,STUART SCH MANAGEMENT & FIN,CHICAGO,IL							Brown R. G, 1963, SMOOTHING FORECASTIN; BURACK EH, IN PRESS; BURACK EH, 1973, ANNUAL M ACADEMY MAN; CHAMBERS OC, 1971, HARVARD BUSINESS REV, V49, P45; CHOW WM, 1965, J IND ENGINEERING, V16, P314; CREIGHTON JW, 1972, ENHANCEMENT RESEARCH; DUNCAN RB, 1972, ADMIN SCI QUART, V17, P313, DOI 10.2307/2392145; EILON S, 1970, MANAGE SCI, V16, P533; GALBRAITH J, 1969, MIT425 PAP; LAWRENCE PR, 1967, ORGANIZATION ENVIRON; SOUDER W, 1968, MONSANTO IEEE     FM, V15, P39; SOUDER WE, 1970, BUS HORIZONS, V13, P31, DOI 10.1016/0007-6813(70)90077-7; VANCIL RF, 1970, HARVARD BUS REV, V48, P98; WHYBARK DC, 1970, 289 PURD U KRANN SCH; WHYBARK DC, 1971, 302 PURD U KRANN SCH; WOODWARD J, 1965, INDUSTRIAL ORGANIZAT	16	1	1	1	5	ACAD MANAGEMENT	BRIARCLIFF MANOR	PACE UNIV, PO BOX 3020, 235 ELM RD, BRIARCLIFF MANOR, NY 10510-8020	0001-4273			ACAD MANAGE J	Acad. Manage. J.		1976	19	1					79	97		10.2307/255449				19	Business; Management	Business & Economics	BK027	WOS:A1976BK02700007					2019-01-18	
J	ADAMS, JR; SWANSON, LA				ADAMS, JR; SWANSON, LA			INFORMATION-PROCESSING BEHAVIOR AND ESTIMATING ACCURACY IN OPERATIONS MANAGEMENT	ACADEMY OF MANAGEMENT JOURNAL			English	Article									SYRACUSE UNIV,SCH MANAGEMENT,SYRACUSE,NY; USAF,SCH SYST & LOGISTICS,GRAD EDUC DIV,WRIGHT PATTERSON AFB,OH 45433							ABERNATHY WJ, 1971, MANAGE SCI B-APPL, V18, pB80; ARCHIBALD RD, 1967, NETWORK BASED MANAGE; FERGUSON EJ, 1973, TIMS ORSA AIIE JOINT; GHISELLI EE, 1971, EXPLORATIONS MANAGER; HALL DT, 1970, ADMIN SCI QUART, V15, P271, DOI 10.2307/2391616; Herzberg F., 1970, MANAGEMENT MOTIVATIO, P86; Kahn R. L., 1964, ORGANIZATIONAL STRES; KIDD JB, 1969, MANAGE SCI, V16, P266, DOI 10.1287/mnsc.16.3.266; KING WR, 1967, MANAGE SCI, V13, P307, DOI DOI 10.1287/MNSC.13.5.307; KING WR, 1967, MANAGE SCI, V14, P79; LAWLER EE, 1971, PAY ORGANIZATIONAL E; Maslow A. H., 1970, MANAGEMENT MOTIVATIO, P27; MCCLELLAND DC, 1969, READINGS MANAGEMENT, P579; MEYERS MS, 1964, HARVARD BUS REV, V42, P73; VROOM VH, 1964, WORK MOTIVATION	15	6	6	1	4	ACAD MANAGEMENT	BRIARCLIFF MANOR	PACE UNIV, PO BOX 3020, 235 ELM RD, BRIARCLIFF MANOR, NY 10510-8020	0001-4273			ACAD MANAGE J	Acad. Manage. J.		1976	19	1					98	110		10.2307/255450				13	Business; Management	Business & Economics	BK027	WOS:A1976BK02700008					2019-01-18	
J	ROSEN, N; BILLINGS, R; TURNEY, J				ROSEN, N; BILLINGS, R; TURNEY, J			EMERGENCE AND ALLOCATION OF LEADERSHIP RESOURCES OVER TIME IN A TECHNICAL ORGANIZATION	ACADEMY OF MANAGEMENT JOURNAL			English	Article									CORNELL UNIV NEW YORK STATE SCH IND & LABOR RELATIONS,ITHACA,NY 14850; OHIO STATE UNIV,COLUMBUS,OH 43210; USA,BEHAV & SOCIAL SCI RES INST,ROSALYN,VA							BASS BM, 1960, LEADERSHIP PSYCHOLOG; BRAY DW, 1972, ANNUAL REV PSYCHOLOG; CAMPBELL JP, 1970, MANAGERIAL BEHAVIOR; GUION RM, 1965, PERS PSYCHOL, V18, P135, DOI 10.1111/j.1744-6570.1965.tb00273.x; KLIMOSKI RJ, 1973, J VOCAT BEHAV, V3, P103, DOI 10.1016/0001-8791(73)90052-3; KORMAN AK, 1968, PERS PSYCHOL, V21, P295, DOI 10.1111/j.1744-6570.1968.tb02032.x; MORRIS CG, 1969, J PERS SOC PSYCHOL, V13, P350, DOI 10.1037/h0028432; TURNEY J, 1971, 79TH P ANN CONV PSYC, P481; TURNEY JR, 1968, THESIS CORNELL U	9	13	13	1	5	ACAD MANAGEMENT	BRIARCLIFF MANOR	PACE UNIV, PO BOX 3020, 235 ELM RD, BRIARCLIFF MANOR, NY 10510-8020	0001-4273			ACAD MANAGE J	Acad. Manage. J.		1976	19	2					165	183		10.2307/255770				19	Business; Management	Business & Economics	BT619	WOS:A1976BT61900001					2019-01-18	
J	GREEN, SG; NEBEKER, DM; BONI, MA				GREEN, SG; NEBEKER, DM; BONI, MA			PERSONALITY AND SITUATIONAL EFFECTS ON LEADER-BEHAVIOR	ACADEMY OF MANAGEMENT JOURNAL			English	Article									UNIV WASHINGTON,SEATTLE,WA 98105; USN,CTR PERSONNEL RES & DEV,SAN DIEGO,CA 92132							BASS AR, 1964, PERSONALITY CORRELAT; BISHOP DW, 1964, THESIS U ILLINOIS; CAMPBELL JP, 1967, MANAGERIAL BEHAVIOR; Fiedler F. E., 1967, THEORY LEADERSHIP EF; FIEDLER FE, 1961, ACTA PSYCHOL, V18, P100, DOI 10.1016/0001-6918(61)90008-7; FIEDLER FE, 1972, HUM RELAT, V25, P391, DOI 10.1177/001872677202500502; FIEDLER FE, 1973, CURRENT DEVELOPMENTS; FIEDLER FE, 1961, LEADERSHIP INTERPERS; HALPIN AW, 1957, 88 OH STAT U BUR BUS; HAWLEY DE, 1969, THESIS U SASKATCHEWA; LARSON LL, 1973, ORGAN BEHAV HUM PERF, V9, P407, DOI 10.1016/0030-5073(73)90062-7; MITCHELL TR, 1969, THESIS U ILLINOIS; Nunnally JC, 1967, PSYCHOMETRIC THEORY; POSTHUMA A, 1970, 708 ORG RES TECHN RE; VROOM VH, 1973, 3 YAL U ADM SCI TECH	15	7	8	0	1	ACAD MANAGEMENT	BRIARCLIFF MANOR	PACE UNIV, PO BOX 3020, 235 ELM RD, BRIARCLIFF MANOR, NY 10510-8020	0001-4273			ACAD MANAGE J	Acad. Manage. J.		1976	19	2					184	194		10.2307/255771				11	Business; Management	Business & Economics	BT619	WOS:A1976BT61900002					2019-01-18	
J	SIMS, HP; SZILAGYI, AD; KELLER, RT				SIMS, HP; SZILAGYI, AD; KELLER, RT			MEASUREMENT OF JOB CHARACTERISTICS	ACADEMY OF MANAGEMENT JOURNAL			English	Article									PENN STATE UNIV,UNIVERSITY PK,PA 16802; UNIV HOUSTON,HOUSTON,TX 77004							ALTMAN EI, 1968, J FINANC, V23, P589, DOI 10.2307/2978933; ANDERSON TW, 1958, INTRO MULTIVARIATE S; CAMPBELL DT, 1959, PSYCHOL BULL, V56, P81, DOI 10.1037/h0046016; CHOCHRAN WG, 1964, TECHNOMETRICS, V6, P179; DIXON WJ, 1968, BMD BIOMEDICAL COMPU; GEORGOPOULOS BS, 1972, ORGANIZATION RESEARC; GEORGOPOULOS BS, 1962, COMMUNITY GENERAL HO; HACKMAN JR, 1971, J APPL PSYCHOL, V55, P259, DOI 10.1037/h0031152; HACKMAN JR, 1975, J APPL PSYCHOL, V60, P159, DOI 10.1037/h0076546; HARMAN HH, 1967, MODERN FACTOR ANALYS; HOUSE RJ, 1971, ADMIN SCI QUART, V16, P321, DOI 10.2307/2391905; HOUSE RJ, 1972, J APPL PSYCHOL, V56, P388, DOI 10.1037/h0033444; HULIN CL, 1968, PSYCHOL BULL, V69, P41, DOI 10.1037/h0025356; HULIN CL, 1971, NEW PERSPECTIVES JOB; LITWIN GH, 1968, MOTIVATION ORGANIZAT; MAXWELL AE, 1961, EDUC PSYCHOL MEAS, V21, P259, DOI 10.1177/001316446102100201; Nunnally JC, 1967, PSYCHOMETRIC THEORY; RIZZO JR, 1970, ADMIN SCI QUART, V15, P150, DOI 10.2307/2391486; SCHWAB DP, 1973, ANNUAL M ACADEMY MAN; SCOTT WE, 1967, PERS PSYCHOL, V20, P179, DOI 10.1111/j.1744-6570.1967.tb02278.x; SCOTT WE, 1966, ORGAN BEHAV HUM PERF, V1, P3, DOI 10.1016/0030-5073(66)90003-1; SHEPARD JM, 1970, IND LABOR RELAT REV, V23, P207, DOI 10.2307/2521792; SIMS HP, 1974, ANNUAL C EASTERN ACA; Smith P. C., 1969, MEASUREMENT SATISFAC; STONE EF, 1975, J APPL PSYCHOL, V60, P57, DOI 10.1037/h0076357; SZILAGYI AD, 1974, ACAD MANAGE J, V17, P622, DOI 10.2307/255642; SZILAGYI AD, UNPUBLISHED MANUSCRI; Thorndike R. L., 1959, 10000 CAREERS; TURNER AN, 1965, INDUSTRIAL JOBS WORK; WOOD DA, 1971, J APPL PSYCHOL, V55, P537, DOI 10.1037/h0032044	30	390	394	1	61	ACAD MANAGEMENT	BRIARCLIFF MANOR	PACE UNIV, PO BOX 3020, 235 ELM RD, BRIARCLIFF MANOR, NY 10510-8020	0001-4273			ACAD MANAGE J	Acad. Manage. J.		1976	19	2					195	212		10.2307/255772				18	Business; Management	Business & Economics	BT619	WOS:A1976BT61900003	1029346				2019-01-18	
J	SALEH, SD; HOSEK, J				SALEH, SD; HOSEK, J			JOB INVOLVEMENT - CONCEPTS AND MEASUREMENTS	ACADEMY OF MANAGEMENT JOURNAL			English	Article									UNIV WATERLOO,WATERLOO,ONTARIO,CANADA; GREENLEIGH ASSOC INC,CHICAGO,IL							Allport GW, 1943, PSYCHOL REV, V50, P451, DOI 10.1037/h0055375; ARONSON E, 1962, J ABNORM PSYCHOL, V65, P178, DOI 10.1037/h0042291; BASS BM, 1965, ORGANIZATIONAL PSYCH; COLEMAN JC, 1969, PSYCHOLOGY EFFECTIVE; Davis JW, 1966, PERS ADMIN, V29, P6; DUBIN R, 1956, SOC PROBL, V3, P131, DOI 10.1525/sp.1956.3.3.03a00010; DUBIN R, 1968, HUMAN RELATIONS ADMI; FRENCH JRP, 1962, J SOC ISSUES, V18, P1, DOI 10.1111/j.1540-4560.1962.tb00415.x; Gergen K.J., 1971, THE CONCEPT OF SELF; GUION RM, 1958, PERS PSYCHOL, V11, P59; Gurin G., 1960, AM VIEW THEIR MENTAL; HACKMAN JR, 1968, J EXP SOC PSYCHOL, V4, P162, DOI 10.1016/0022-1031(68)90040-1; IVERSON MA, 1956, PSYCHOL REP, V2, P147; KAUFMANN H, 1962, THESIS U PENNSYLVANI; LAWLER EE, 1970, J APPL PSYCHOL, V54, P305, DOI 10.1037/h0029692; LODAHL TM, 1965, J APPL PSYCHOL, V49, P24, DOI 10.1037/h0021692; SIEGEL L, 1969, INDUSTRIAL PSYCHOLOG; SLATER CW, 1959, THESIS U MICHIGAN; VROOM VH, 1962, PERS PSYCHOL, V15, P159, DOI 10.1111/j.1744-6570.1962.tb01858.x; VROOM VH, 1959, J ABNORM SOC PSYCH, V59, P322, DOI 10.1037/h0049057; VROOM VH, 1964, WORK MOTIVATION; Wickert FR, 1951, PERS PSYCHOL, V4, P185, DOI 10.1111/j.1744-6570.1951.tb01472.x	22	72	73	0	16	ACAD MANAGEMENT	BRIARCLIFF MANOR	PACE UNIV, PO BOX 3020, 235 ELM RD, BRIARCLIFF MANOR, NY 10510-8020	0001-4273			ACAD MANAGE J	Acad. Manage. J.		1976	19	2					213	224		10.2307/255773				12	Business; Management	Business & Economics	BT619	WOS:A1976BT61900004					2019-01-18	
J	SCHERMERHORN, JR				SCHERMERHORN, JR			OPENNESS TO INTERORGANIZATIONAL COOPERATION - STUDY OF HOSPITAL ADMINISTRATORS	ACADEMY OF MANAGEMENT JOURNAL			English	Article									UNIV VERMONT,DEPT BUSINESS ADM,BURLINGTON,VT 05401							AIKEN M, 1968, AM SOCIOL REV, V33, P912, DOI 10.2307/2092683; ASTOLFI A, 1973, HOSPITALS JAHA, V46, P61; BAKER F, 1971, AM J PUBLIC HEALTH N, V61, P130, DOI 10.2105/AJPH.61.1.130; BELLIN L, 1972, INTERORGANIZATIONAL, P102; BLACK B, 1963, SOCIAL SERVICE REV, V57, P26; BLUMBERG M, 1966, SHARED SERVICES HOSP; Clark W E, 1971, Health Serv Res, V6, P198; DeVries R A, 1973, Hospitals, V47, P86; EMERY G, 1967, HUMAN RELATIONS, V30, P199; EVAN WM, 1965, MANAGE SCI, V11, pB217; GUEZTKOW H, 1966, STUDIES BEHAVIOR ORG, P13; LEVINE S, 1961, ADMIN SCI QUART, V5, P583, DOI 10.2307/2390622; LEVINE S, 1963, AM J PUBLIC HEALTH N, V53, P1183, DOI 10.2105/AJPH.53.8.1183; LEWIS C, 1972, INTERORGANIZATIONAL, P70; LITWAK E, 1962, ADMIN SCI QUART, V6, P395, DOI 10.2307/2390723; LITWAK E, 1970, ORGANIZATIONS CLIENT; MELCHER A, 1971, ORGANIZATION THEORY, P1; REID W, 1964, SOC SERV REV, V38, P418, DOI 10.1086/641655; REID W, 1972, INTERORGANIZATIONAL, P84; Starkweather D B, 1972, Health Serv Res, V7, P58; THOMPSON JD, 1958, AM SOCIOL REV, V23, P23, DOI 10.2307/2088620; *US DEP HEW, 1972, SHAR SERV; WALTON R, 1972, INTERORGANIZATIONAL, P9; WARREN R, 1972, INTERORGANIZATIONAL, P20; WHITE P, 1972, INTERORGANIZATIONAL	25	6	6	0	3	ACAD MANAGEMENT	BRIARCLIFF MANOR	PACE UNIV, PO BOX 3020, 235 ELM RD, BRIARCLIFF MANOR, NY 10510-8020	0001-4273			ACAD MANAGE J	Acad. Manage. J.		1976	19	2					225	236		10.2307/255774				12	Business; Management	Business & Economics	BT619	WOS:A1976BT61900005	1029347				2019-01-18	
J	KOPELMAN, RE; THOMPSON, PH				KOPELMAN, RE; THOMPSON, PH			BOUNDARY-CONDITIONS FOR EXPECTANCY-THEORY PREDICTIONS OF WORK MOTIVATION AND JOB PERFORMANCE	ACADEMY OF MANAGEMENT JOURNAL			English	Article									CUNY BERNARD BARUCH COLL,NEW YORK,NY 10010; BRIGHAM YOUNG UNIV,DEPT ORG BEHAV,PROVO,UT 84602							ARVEY RD, 1972, ORGAN BEHAV HUM PERF, V8, P423, DOI 10.1016/0030-5073(72)90060-8; BLUMBERG H, 1974, THESIS BARUCH COLLEG; CAMPBELL JP, 1970, MANAGERIAL BEHAVIOR; DACHLER HP, 1973, J APPL PSYCHOL, V58, P397, DOI 10.1037/h0036297; DALTON GW, 1971, HARVARD BUS REV, V49, P57; DELEO PJ, 1974, ORGAN BEHAV HUM PERF, V12, P143, DOI 10.1016/0030-5073(74)90043-9; GALBRAITH J, 1967, ORGAN BEHAV HUM PERF, V2, P237, DOI 10.1016/0030-5073(67)90020-7; GALBRAITH JR, 1972, 7243 EUR I ADV STUD, P1; GAVIN JF, 1970, 190A EXPT PUBL SYST, P1; GEORGOPOULOS BS, 1957, J APPL PSYCHOL, V41, P345, DOI 10.1037/h0048473; GOODMAN PS, 1973, EXPECTANCY THEORY WO; GRAEN G, 1969, J APPL PSYCHOL, V53, P1, DOI 10.1037/h0027100; GREENE CN, 1973, J APPL PSYCHOL, V58, P95, DOI 10.1037/h0035417; GUILFORD JP, 1965, FUNDAMENTAL STATISTI; HEIDER F, 1958, PSYCHOLOGY INTERPERS; HENEMAN HG, 1972, PSYCHOL BULL, V78, P1, DOI 10.1037/h0033093; HENEMAN HG, 1971, 31ST P ANN M AC MAN, P220; House RJ, 1974, DECISION SCI, V5, P481, DOI DOI 10.1111/J.1540-5915.1974.TB00632.X; HOUSE RJ, 1973, 81ST P ANN M AM PSYC; KESSELMAN GA, 1973, 81ST P ANN M AM PSYC; KOPELMAN RE, 1974, THESIS HARVARD BUSIN; LAWLER EE, 1968, J APPL PSYCHOL, V52, P462, DOI 10.1037/h0026499; LAWLER EE, 1966, PERS PSYCHOL, V19, P153, DOI 10.1111/j.1744-6570.1966.tb02025.x; LAWLER EE, 1973, ORGAN BEHAV HUM PERF, V9, P482, DOI 10.1016/0030-5073(73)90066-4; LAWLER EE, 1967, ORGAN BEHAV HUM PERF, V2, P122, DOI 10.1016/0030-5073(67)90026-8; LAWLER EE, 1970, PERS PSYCHOL, V23, P223, DOI 10.1111/j.1744-6570.1970.tb01652.x; LAWLER EE, 1971, PAY ORGANIZATIONAL E; LAWLER EE, 1973, MOTIVATION WORK ORGA; LIFTER ML, 1971, ORGAN BEHAV HUM PERF, V6, P501, DOI 10.1016/0030-5073(71)90030-4; LIKERT R, 1967, HUMAN ORGANIZATION I; MITCHELL TR, 1971, PSYCHOL BULL, V76, P432, DOI 10.1037/h0031831; MITCHELL TR, 1974, PSYCHOL BULL, V81, P1053, DOI 10.1037/h0037495; MITCHELL TR, 1973, J APPL PSYCHOL, V57, P61, DOI 10.1037/h0034181; MITCHELL TR, 1972, ORGAN BEHAV HUM PERF, V8, P1, DOI 10.1016/0030-5073(72)90033-5; MITCHELL TR, 1972, JSAS CATALOG SELECTE, V2, P1; MOORE MH, 1973, THESIS U HOUSTON; PELZ DC, 1964, AM SOCIOL REV, V29, P836, DOI 10.2307/2090866; Porter L.W., 1968, MANAGERIAL ATTITUDES; PRITCHARD RD, 1973, J APPL PSYCHOL, V57, P264, DOI 10.1037/h0034719; REINHARTH L, 1974, 11TH P ANN C EAST AC, P1; SCHNEIDER B, 1970, PERS PSYCHOL, V23, P313, DOI 10.1111/j.1744-6570.1970.tb01659.x; SCHWAB DP, 1973, ORGAN BEHAV HUM PERF, V9, P215, DOI 10.1016/0030-5073(73)90047-0; SHERIDAN JE, 1974, 11TH P ANN C EAST AC, P1; SHERIDAN JE, 1974, DECISION SCI, V5, P507; TODD JT, 1972, THESIS HARVARD BUSIN; VANMAANEN J, 1972, 63272 MASS I TECHN W, P1; VROOM VH, 1964, WORK MOTIVATION	47	21	21	1	15	ACAD MANAGEMENT	BRIARCLIFF MANOR	PACE UNIV, PO BOX 3020, 235 ELM RD, BRIARCLIFF MANOR, NY 10510-8020	0001-4273			ACAD MANAGE J	Acad. Manage. J.		1976	19	2					237	258		10.2307/255775				22	Business; Management	Business & Economics	BT619	WOS:A1976BT61900006					2019-01-18	
J	SZILAGYI, AD; SIMS, HP; KELLER, RT				SZILAGYI, AD; SIMS, HP; KELLER, RT			ROLE DYNAMICS, LOCUS OF CONTROL, AND EMPLOYEE ATTITUDES AND BEHAVIOR	ACADEMY OF MANAGEMENT JOURNAL			English	Article									UNIV HOUSTON,HOUSTON,TX 77004; PENN STATE UNIV,UNIVERSITY PK,PA 16802							CONOVER WJ, 1971, PRACTICAL NONPARAMET; EVANS MG, 1974, J APPL PSYCHOL, V59, P172, DOI 10.1037/h0036516; GEORGOPOULOS GS, 1972, ORGANIZATION RESEARC; HAMNER WC, 1974, J APPL PSYCHOL, V59, P497, DOI 10.1037/h0037340; HARMAN HH, 1967, MODERN FACTOR ANALYS; HOUSE RJ, 1971, ADMIN SCI QUART, V16, P321, DOI 10.2307/2391905; HOUSE RJ, 1972, ORGAN BEHAV HUM PERF, V7, P467, DOI 10.1016/0030-5073(72)90030-X; HOUSE RJ, 1970, CALIF MANAGE REV, V12, P53, DOI 10.2307/41164305; HOUSTON BK, 1972, J PERS SOC PSYCHOL, V21, P249, DOI 10.1037/h0032328; KAHN RL, 1961, ORGANIZATIONAL STRES; KELLER RT, 1975, PERS PSYCHOL, V28, P57, DOI 10.1111/j.1744-6570.1975.tb00391.x; LAWLER EE, 1971, PAY ORGANIZATION EFF; LEFCOURT HM, 1966, PSYCHOL BULL, V65, P206, DOI 10.1037/h0023116; MACDONALD AP, 1974, MEASURES SOCIAL PSYC; ORGAN DW, 1974, J APPL PSYCHOL, V59, P101, DOI 10.1037/h0035826; PERROW C, 1965, HDB ORGANIZATIONS; Porter L.W., 1968, MANAGERIAL ATTITUDES; RIZZO JR, 1970, ADMIN SCI QUART, V15, P150, DOI 10.2307/2391486; ROTTER JB, 1966, PSYCHOLOGICAL MONOGR, V80; SCHULER RS, 1974, ROLE CONFLICT ROLE A; Smith P. C., 1969, MEASUREMENT SATISFAC; SMITH PC, 1974, J APPL PSYCHOL, V59, P99, DOI 10.1037/h0035828; SZILAGYI AD, 1975, J APPL PSYCHOL, V60, P638, DOI 10.1037/h0077156; SZILAGYI AD, 1973, THESIS INDIANA U; TOSI H, 1971, ACAD MANAGE J, V14, P7, DOI 10.2307/254707; VALECHA GK, 1972, 80TH P ANN CONV AM P, V7, P455; WATSON D, 1967, J PERS SOC PSYCHOL, V6, P212, DOI 10.1037/h0024555	27	72	72	0	11	ACAD MANAGEMENT	BRIARCLIFF MANOR	PACE UNIV, PO BOX 3020, 235 ELM RD, BRIARCLIFF MANOR, NY 10510-8020	0001-4273			ACAD MANAGE J	Acad. Manage. J.		1976	19	2					259	276		10.2307/255776				18	Business; Management	Business & Economics	BT619	WOS:A1976BT61900007	1029348				2019-01-18	
J	JEDEL, MJ; KUJAWA, D				JEDEL, MJ; KUJAWA, D			RACIAL DICHOTOMIES IN EMPLOYMENT PERCEPTIONS - EMPIRICAL-STUDY OF WORKERS IN SELECTED ATLANTA BASED FIRMS	ACADEMY OF MANAGEMENT JOURNAL			English	Article									GEORGIA STATE UNIV,ATLANTA,GA 30303							BRALOVE M, 1974, WALL STREET J   0418, P1; CROTTY PT, 1974, BUS HORIZONS, V17, P27, DOI 10.1016/0007-6813(74)90071-8; *GRIGGS, 1971, DUKE POWER CO, VSUPR; JEDEL MJ, 1973, ATLANTA ECONOMIC REV, V23, P28; WEAVER CN, 1974, BUS HORIZONS, V17, P43, DOI 10.1016/0007-6813(74)90073-1	5	1	1	0	3	ACAD MANAGEMENT	BRIARCLIFF MANOR	PACE UNIV, PO BOX 3020, 235 ELM RD, BRIARCLIFF MANOR, NY 10510-8020	0001-4273			ACAD MANAGE J	Acad. Manage. J.		1976	19	2					277	290		10.2307/255777				14	Business; Management	Business & Economics	BT619	WOS:A1976BT61900008					2019-01-18	
J	DICKSON, JW				DICKSON, JW			ADOPTION OF INNOVATIVE PROPOSALS AS RISKY CHOICE - MODEL AND SOME RESULTS	ACADEMY OF MANAGEMENT JOURNAL			English	Article									UNIV GLASGOW,DEPT MANAGEMENT STUDIES,GLASGOW G12 8QQ,SCOTLAND							ALDERFER CP, 1970, J BUS, V43, P341, DOI 10.1086/295286; BAKER NR, 1972, MANAGE SCI, V19, P105, DOI 10.1287/mnsc.19.1.105; CHILD J, 1973, MAN ORGANISATION; CYERT RM, 1963, BEHAVIORAL THEORY FI; DICKSON JW, 1975, ACAD MANAGE J, V18, P381, DOI 10.2307/255541; DICKSON JW, 1974, THESIS U PITTSBURGH; FRYER FW, 1963, EVALUATION ASPIRATIO; LICHTENSTEIN S, 1971, J EXP PSYCHOL, V89, P46, DOI 10.1037/h0031207; LINDMAN HR, 1971, J EXP PSYCHOL, V89, P390, DOI 10.1037/h0031208; March J. G., 1958, ORGANIZATIONS; PRITCHARD RD, 1973, J APPL PSYCHOL, V57, P55, DOI 10.1037/h0034197; PRUITT DG, 1969, J EXP SOC PSYCHOL, V5, P115, DOI 10.1016/0022-1031(69)90041-9; SAYLES LR, 1974, J MANAGEMENT STUDIES, V9, P190; SLOVIC P, 1968, J EXP PSYCHOL      2, V78, P3; Stedry A, 1960, BUDGET CONTROL COST; TVERSKY A, 1969, PSYCHOL REV, V76, P31, DOI 10.1037/h0026750; WINER BJ, 1962, STATISTICAL PRINCIPL	17	6	6	0	3	ACAD MANAGEMENT	BRIARCLIFF MANOR	PACE UNIV, PO BOX 3020, 235 ELM RD, BRIARCLIFF MANOR, NY 10510-8020	0001-4273			ACAD MANAGE J	Acad. Manage. J.		1976	19	2					291	303		10.2307/255778				13	Business; Management	Business & Economics	BT619	WOS:A1976BT61900009					2019-01-18	
J	BASS, BM; CASCIO, WF; MCPHERSON, JW; TRAGASH, HJ				BASS, BM; CASCIO, WF; MCPHERSON, JW; TRAGASH, HJ			PROSPER - TRAINING AND RESEARCH FOR INCREASING MANAGEMENT AWARENESS OF AFFIRMATIVE-ACTION IN RACE-RELATIONS	ACADEMY OF MANAGEMENT JOURNAL			English	Article									UNIV ROCHESTER,ROCHESTER,NY 14627; FLORIDA INT UNIV,MIAMI,FL; XEROX CORP,ROCHESTER,NY 14603							BASS BM, 1974, AM PSYCHOL, V29, P870, DOI 10.1037/h0037515; BASS BM, 1972, PROSPER PROGRAM PROB; BOWERS DG, 1973, J APPL BEHAV SCI, V9, P21, DOI 10.1177/002188637300900103; CARLSMIT.JM, 1966, J PERS SOC PSYCHOL, V4, P1, DOI 10.1037/h0023507; CASCIO WF, IN PRESS; FISHBEIN M, 1972, ANNU REV PSYCHOL, V23, P487, DOI 10.1146/annurev.ps.23.020172.002415; JANIS IL, 1954, J ABNORM SOC PSYCH, V49, P211, DOI 10.1037/h0056957; KAISER HF, 1958, PSYCHOMETRIKA, V23, P179; Kelman HC, 1953, HUM RELAT, V6, P185, DOI 10.1177/001872675300600301; KING GT, 1956, HUMAN RELATIONS, V9, P177; LORD FM, 1963, PROBLEMS MEASURING C, P21; Nunnally JC, 1967, PSYCHOMETRIC THEORY; Triandis H. C., 1971, ATTITUDE ATTITUDE CH; 1972, DEMOCRAT CHRONI 1118	14	6	6	2	9	ACAD MANAGEMENT	BRIARCLIFF MANOR	PACE UNIV, PO BOX 3020, 235 ELM RD, BRIARCLIFF MANOR, NY 10510-8020	0001-4273			ACAD MANAGE J	Acad. Manage. J.		1976	19	3					353	369		10.2307/255603				17	Business; Management	Business & Economics	CC627	WOS:A1976CC62700001					2019-01-18	
J	BURKE, RJ; WEIR, T; DUNCAN, G				BURKE, RJ; WEIR, T; DUNCAN, G			INFORMAL HELPING RELATIONSHIPS IN WORK ORGANIZATIONS	ACADEMY OF MANAGEMENT JOURNAL			English	Article									YORK UNIV,FAC ADM STUDIES,DOWNSVIEW M3J 1P3,ONTARIO,CANADA; YORK UNIV,DEPT PSYCHOL,DOWNSVIEW M3J 1P3,ONTARIO,CANADA							Argyris C., 1974, THEORY PRACTICE INCR; ARGYRIS C, 1965, ORGANIZATION INNOVAT; ARGYRIS C, 1971, MANAGEMENT ORGANIZAT; ARGYRIS C, 1962, INTERPERSONAL COMPET; Argyris C., 1970, INTERVENTION THEORY; BURKE RJ, 1971, PERS ADMIN, V34, P27; BURKE RJ, 1975, J BUS ADMIN, V6, P59; French J. R. P., 1973, FAILURE SUCCESS; French K., 1973, OCCUPATIONAL MENTAL, V3, P15; Kahn R. L., 1964, ORGANIZATIONAL STRES; LIKERT R, 1967, HUMAN ORGANIZATION I; Likert R., 1961, NEW PATTERNS MANAGEM; SALES SM, 1970, ORGAN BEHAV HUM PERF, V5, P592, DOI 10.1016/0030-5073(70)90042-5	13	41	42	1	6	ACAD MANAGEMENT	BRIARCLIFF MANOR	PACE UNIV, PO BOX 3020, 235 ELM RD, BRIARCLIFF MANOR, NY 10510-8020	0001-4273			ACAD MANAGE J	Acad. Manage. J.		1976	19	3					370	377		10.2307/255604				8	Business; Management	Business & Economics	CC627	WOS:A1976CC62700002					2019-01-18	
J	NUTT, PC				NUTT, PC			MERITS OF USING EXPERTS OR CONSUMERS AS MEMBERS OF PLANNING GROUPS - FIELD EXPERIMENT IN HEALTH-PLANNING	ACADEMY OF MANAGEMENT JOURNAL			English	Article									OHIO STATE UNIV,HOSP & HLTH SERV ADM,COLUMBUS,OH 43210; OHIO STATE UNIV,DEPT IND & SYST ENGN,COLUMBUS,OH 43210							COLLINS BE, 1964, SOCIAL PSYCHOLOGY GR; DELBECQ A, 1968, ACAD MANAGE J, V11, P427; DELBECQ AL, 1971, J APPL BEHAV SCI, V7, P466, DOI 10.1177/002188637100700404; DELBECQ AL, 1968, ACAD MANAGE J, V11, P11, DOI 10.2307/255193; Delbecq Andre, 1975, GROUP TECHNIQUES PRO; FILLEY AC, 1969, MANAGEMENT PROCESS O; GUSTAFSON DH, 1973, ORGAN BEHAV HUM PERF, V9, P280, DOI 10.1016/0030-5073(73)90052-4; LAMBRO D, 1975, FEDERAL RATHOLE; LIPSKY M, 1968, 28 U WISC I RES POV; LOCKE EA, 1968, PSYCHOL BULL, V70, P474, DOI 10.1037/h0026737; Maier N. R. F., 1970, PROBLEM SOLVING CREA; NADLER G, 1970, WORK SYSTEMS DESIGN; PARKER AW, 1970, AM J PUBLIC HEALTH N, V60, P2139, DOI 10.2105/AJPH.60.11.2139; SLOVIC P, 1969, J EXP PSYCHOL, V79, P139, DOI 10.1037/h0026970; STRUFFERT S, 1970, J APPLIED PSYCHOL, V54, P393; UTTERBACK JM, 1971, ACAD MANAGE J, V14, P75, DOI 10.2307/254712	16	10	10	0	3	ACAD MANAGEMENT	BRIARCLIFF MANOR	PACE UNIV, PO BOX 3020, 235 ELM RD, BRIARCLIFF MANOR, NY 10510-8020	0001-4273			ACAD MANAGE J	Acad. Manage. J.		1976	19	3					378	394		10.2307/255605				17	Business; Management	Business & Economics	CC627	WOS:A1976CC62700003	1029349				2019-01-18	
J	IVANCEVICH, JM; MCMAHON, JT				IVANCEVICH, JM; MCMAHON, JT			GROUP DEVELOPMENT, TRAINER STYLE AND CARRY-OVER JOB SATISFACTION AND PERFORMANCE	ACADEMY OF MANAGEMENT JOURNAL			English	Article									UNIV HOUSTON,HOUSTON,TX 77004							BECKHARD R, 1969, ORGANIZATION DEVELOP; BENNIS WG, 1963, ADMIN SCI QUART, V8, P125, DOI 10.2307/2390897; BENNIS WG, 1956, HUM RELAT, V9, P415, DOI 10.1177/001872675600900403; BUNKER DR, 1967, J APPL BEHAV SCI, V3, P505, DOI 10.1177/002188636700300406; CAMPBELL JP, 1968, PSYCHOL BULL, V70, P73, DOI 10.1037/h0026031; FLEISHMAN EA, 1955, LEADERSHIP SUPERVISI; HARRISON R, 1971, J APPL BEHAV SCI, V7, P71, DOI 10.1177/002188637100700106; HOUSE RJ, 1965, PERS PSYCHOL, V18, P311, DOI 10.1111/j.1744-6570.1965.tb00288.x; IVANCEVICH JM, 1974, ACAD MANAGE J, V17, P428, DOI 10.2307/254647; LUNDGREN DC, 1971, J APPL BEHAV SCI, V7, P689, DOI 10.1177/002188637100700604; MARGULIES N, 1973, ORGANIZATIONAL CHANG; MCNEMAR Q, 1962, PSYCHOLOGICAL STATIS; Nunnally JC, 1967, PSYCHOMETRIC THEORY; PORTER LW, 1962, J APPL PSYCHOL, V46, P375, DOI 10.1037/h0047808; RUNKEL PJ, 1971, J APPL BEHAV SCI, V7, P180, DOI 10.1177/002188637100700204; SPROTT DA, 1970, PSYCHOL BULL, V73, P303, DOI 10.1037/h0028923; TUCKMAN BW, 1965, PSYCHOL BULL, V63, P384, DOI 10.1037/h0022100; VALIQUET MI, 1968, J APPL BEHAV SCI, V4, P313, DOI 10.1177/002188636800400304	18	5	5	0	3	ACAD MANAGEMENT	BRIARCLIFF MANOR	PACE UNIV, PO BOX 3020, 235 ELM RD, BRIARCLIFF MANOR, NY 10510-8020	0001-4273			ACAD MANAGE J	Acad. Manage. J.		1976	19	3					395	412		10.2307/255606				18	Business; Management	Business & Economics	CC627	WOS:A1976CC62700004					2019-01-18	
J	LIDDELL, WW; SLOCUM, JW				LIDDELL, WW; SLOCUM, JW			EFFECTS OF INDIVIDUAL-ROLE COMPATIBILITY UPON GROUP-PERFORMANCE - EXTENSION OF SCHUTZS FIRO THEORY	ACADEMY OF MANAGEMENT JOURNAL			English	Article									COLL WILLIAM & MARY,WILLIAMSBURG,VA 23185; PENN STATE UNIV,UNIVERSITY PK,PA 16802							Bavelas A, 1948, APPL ANTHROPOL, V7, P16, DOI 10.17730/humo.7.3.f4033344851gl053; BAVELAS A, 1950, J ACOUSTICAL SOC AM, V22, P727; BERKOWITZ L, 1956, SOCIOMETRY, V19, P210, DOI 10.2307/2785764; BOUCHARD TJ, 1969, J APPL PSYCHOL, V53, P1, DOI 10.1037/h0026747; Cattell RB, 1953, HUM RELAT, V6, P331, DOI 10.1177/001872675300600403; COHEN AM, 1964, J PSYCHOL, V58, P115, DOI 10.1080/00223980.1964.9916728; COHEN AM, 1964, J PSYCHOL, V57, P475, DOI 10.1080/00223980.1964.9916714; COHEN AM, 1968, J PERS SOC PSYCHOL, V8, P209, DOI 10.1037/h0021240; COHEN AM, 1962, ADMIN SCI QUART, V6, P443, DOI 10.2307/2390725; COHEN AM, 1964, PERSONNEL ADMINI MAY, P18; COHEN AM, 1967, COMMUNICATION THEORY; DIMARCO NJ, 1974, ACAD MANAGE J, V17, P575, DOI 10.2307/254661; Fiedler F. E., 1967, THEORY LEADERSHIP EF; FIEDLER FE, 1961, ACTA PSYCHOL, V18, P100, DOI 10.1016/0001-6918(61)90008-7; GLANZER M, 1961, PSYCHOL BULL, V58, P1, DOI 10.1037/h0041302; Grace HA, 1954, J SOC PSYCHOL, V40, P333, DOI 10.1080/00224545.1954.9714243; GUETZKOW H, 1962, GROUP DYNAMICS RESEA; Guetzkow H, 1955, MANAGE SCI, V1, P233, DOI 10.1287/mnsc.1.3-4.233; GUTTMAN L, 1950, SCALE ANALYSIS; HARE AP, 1969, HDB SMALL GROUP RESE; HAYTHORN W, 1953, J ABNORM SOC PSYCH, V48, P276, DOI 10.1037/h0058211; HUTCHESON DE, 1963, RELATIONSHIPS TEACHE; ILGEN DR, 1974, ORGAN BEHAV HUM PERF, V12, P335, DOI 10.1016/0030-5073(74)90056-7; KIRK RE, 1968, EXPT DESIGN PROCEDUR; LEAVITT HJ, 1951, J ABNORM SOC PSYCH, V46, P38, DOI 10.1037/h0057189; LEVINSON D, 1959, J ABNORMAL SOCIAL PS, V46, P170; MOHANNA AI, 1960, J ABNORM SOC PSYCH, V60, P139, DOI 10.1037/h0049284; SAPOLSKY A, 1965, J Abnorm Psychol, V70, P70, DOI 10.1037/h0021672; SAPOLSKY A, 1960, J ABNORM SOC PSYCH, V60, P241, DOI 10.1037/h0041031; Schutz W., 1958, FIRO 3 DIMENSIONAL T; SCHUTZ WC, 1961, J ABNORM SOC PSYCH, V62, P275, DOI 10.1037/h0048555; SCHUTZ WC, 1967, FIRO SCALES; SCHUTZ WC, 1956, HUMAN RELATIONS, V8, P429; SHAW M E, 1955, J Abnorm Psychol, V50, P127, DOI 10.1037/h0041129; Shaw ME, 1954, J PSYCHOL, V38, P139, DOI 10.1080/00223980.1954.9712925; SHAW ME, 1956, J APPL PSYCHOL, V40, P281, DOI 10.1037/h0045969; SHAW ME, 1954, J ABNORM SOC PSYCH, V49, P547, DOI 10.1037/h0053638; SHAW ME, 1954, J EXP PSYCHOL, V48, P211, DOI 10.1037/h0054191; SHAW ME, 1964, ADV EXPT SOCIAL PSYC; Siegel S., 1956, NONPARAMETRIC STATIS; SIMON HA, 1950, PUBLIC ADMINISTRATIO; TANNENBAUM AS, 1968, CONTROL ORGANIZATION; WINER BJ, 1962, STATISTICAL PRINCIPL	43	15	15	1	4	ACAD MANAGEMENT	BRIARCLIFF MANOR	PACE UNIV, PO BOX 3020, 235 ELM RD, BRIARCLIFF MANOR, NY 10510-8020	0001-4273			ACAD MANAGE J	Acad. Manage. J.		1976	19	3					413	426		10.2307/255607				14	Business; Management	Business & Economics	CC627	WOS:A1976CC62700005					2019-01-18	
J	DURAND, DE; NORD, WR				DURAND, DE; NORD, WR			PERCEIVED LEADER-BEHAVIOR AS A FUNCTION OF PERSONALITY-CHARACTERISTICS OF SUPERVISORS AND SUBORDINATES	ACADEMY OF MANAGEMENT JOURNAL			English	Article									UNIV MISSOURI,ST LOUIS,MO 63121; WASHINGTON UNIV,ST LOUIS,MO 63110							BEER M, 1966, 129 OH STAT U BUR BU; Christie R., 1970, STUDIES MACHIAVELLIA; DESSLER G, 1974, ORGANIZATIONAL BEHAV, V12, P62; EVANS M, 1973, CURRENT DEV STUDY LE, P174; EVANS MG, 1974, J APPL PSYCHOL, V59, P172, DOI 10.1037/h0036516; FLEISHMAN E, 1973, CURRENT DEVELOPMENTS, P178; GEMMILL GR, 1972, ACAD MANAGE J, V15, P51, DOI 10.2307/254800; Gibb C. A., 1969, HDB SOCIAL PSYCHOL, P205; GOODSTADT BE, 1973, J PERS SOC PSYCHOL, V27, P190, DOI 10.1037/h0034784; GURIN P, 1969, J SOC ISSUES, V25, P29, DOI 10.1111/j.1540-4560.1969.tb00605.x; HAYTHORN W, 1956, J ABNORM SOC PSYCH, V53, P210, DOI 10.1037/h0047418; JOE VC, 1971, PSYCHOL REP, V28, P619, DOI 10.2466/pr0.1971.28.2.619; KERR S, 1974, ORGAN BEHAV HUM PERF, V12, P62, DOI 10.1016/0030-5073(74)90037-3; MISUMI J, 1971, ADMIN SCI QUART, V16, P51, DOI 10.2307/2391287; PRYER MW, 1971, NURS RES, V2, P534; ROTTER JB, 1966, PSYCHOLOGICAL MONOGR, V80; RUNYON KE, 1973, J APPL PSYCHOL, V57, P288, DOI 10.1037/h0034723; SHRAUGER S, 1964, PSYCHOL BULL, V62, P289, DOI 10.1037/h0044083; Stogdill R., 1974, HDB LEADERSHIP; STOGDILL RM, 1963, MANUAL LEADER BEHAVI; Tagiuri R., 1969, HDB SOCIAL PSYCHOL, P395	21	27	28	0	5	ACAD MANAGEMENT	BRIARCLIFF MANOR	PACE UNIV, PO BOX 3020, 235 ELM RD, BRIARCLIFF MANOR, NY 10510-8020	0001-4273			ACAD MANAGE J	Acad. Manage. J.		1976	19	3					427	438		10.2307/255608				12	Business; Management	Business & Economics	CC627	WOS:A1976CC62700006					2019-01-18	
J	OSBORN, RN; VICARS, WM				OSBORN, RN; VICARS, WM			SEX STEREOTYPES - ARTIFACT IN LEADER-BEHAVIOR AND SUBORDINATE SATISFACTION ANALYSIS	ACADEMY OF MANAGEMENT JOURNAL			English	Article									SO ILLINOIS UNIV,CARBONDALE,IL 62901							BARTOL KM, 1974, ACAD MANAGE J, V17, P225, DOI 10.2307/254976; BARTOL KM, 1974, 7410 U MASS SCH BUS; BASS BM, 1971, AM BEHAV SCI, V15, P221, DOI 10.1177/000276427101500206; Bowman G. W., 1965, HARVARD BUS REV, V43, P164; BOWMAN GW, 1965, HARVARD BUS REV, V43, P14; BROVERMAN IK, 1972, J SOC ISSUES, V28, P59, DOI 10.1111/j.1540-4560.1972.tb00018.x; CECIL EA, 1973, PERS PSYCHOL, V26, P397, DOI 10.1111/j.1744-6570.1973.tb01147.x; COHEN J, 1968, PSYCHOL BULL, V70, P426, DOI 10.1037/h0026714; DAY DR, 1972, PERS PSYCHOL, V25, P353, DOI 10.1111/j.1744-6570.1972.tb01110.x; DEAUX K, 1973, PSYCHOL REP, V32, P261, DOI 10.2466/pr0.1973.32.1.261; DEAUX K, 1974, S PROFESSIONAL WOMAN; DOLL PA, 1965, THESIS U HOUSTON; FIDELL LS, 1970, AM PSYCHOL, V25, P1094, DOI 10.1037/h0030294; GILMER BVH, 1966, INDUSTRIAL PSYCHOLOG, P455; GOLDBERG P, 1968, TRANS-ACT-SOC SCI MO, V5, P28; HAMNER WC, 1974, J APPL PSYCHOL, V59, P705, DOI 10.1037/h0037503; House R. H., 1974, CONTINGENCY APPROACH, P29; KELLY FJ, 1969, RESEARCH DESIGN BEHA; MAIER NRF, 1970, PERS PSYCHOL, V23, P455; MARTIN CR, 1972, SO J BUSINESS, V7, P17; MEGARGEE EI, 1969, J APPL PSYCHOL, V53, P377, DOI 10.1037/h0028093; MERRITT DH, 1969, BUS HORIZONS, V12, P15, DOI 10.1016/0007-6813(69)90085-8; OSBORN R, IN PRESS; PHETERSON GI, 1971, J PERS SOC PSYCHOL, V19, P114, DOI 10.1037/h0031215; ROSEN B, 1973, J APPL PSYCHOL, V57, P44, DOI 10.1037/h0034198; ROSEN B, 1974, J APPL PSYCHOL, V59, P511, DOI 10.1037/h0037323; ROSEN B, 1974, J APPL PSYCHOL, V59, P9, DOI 10.1037/h0035834; SCHEIN VE, 1973, J APPL PSYCHOL, V57, P95, DOI 10.1037/h0037128; SHAW EA, 1972, PERS PSYCHOL, V25, P333, DOI 10.1111/j.1744-6570.1972.tb01108.x; Smith P. C., 1969, MEASUREMENT SATISFAC; SPENCE JT, 1972, J APPL SOC PSYCHOL, V2, P197, DOI 10.1111/j.1559-1816.1972.tb01272.x; Stogdill R. M., 1974, HDB LEADERSHIP SURVE; STOGDILL RM, 1963, MANUAL LEADER BEHAVI; *US WOM BUR, 1969, HDB WOM WORK	34	98	98	0	5	ACAD MANAGEMENT	BRIARCLIFF MANOR	PACE UNIV, PO BOX 3020, 235 ELM RD, BRIARCLIFF MANOR, NY 10510-8020	0001-4273			ACAD MANAGE J	Acad. Manage. J.		1976	19	3					439	449		10.2307/255609				11	Business; Management	Business & Economics	CC627	WOS:A1976CC62700007	1029350				2019-01-18	
J	FOX, WM				FOX, WM			RELIABILITIES, MEANS, AND STANDARD DEVIATIONS FOR LPC SCALES - INSTRUMENT REFINEMENT	ACADEMY OF MANAGEMENT JOURNAL			English	Article									UNIV FLORIDA,COLL BUSINESS ADM,GAINESVILLE,FL 32601							BONS PM, 1970, PERS PSYCHOL, V23, P551; CHEMERS MM, 1974, CONTINGENCY APPROACH, P91; EVANS MG, 1974, J APPL PSYCHOL, V59, P202, DOI 10.1037/h0036515; Fiedler F. E., 1967, THEORY LEADERSHIP EF; FIEDLER FE, 1971, 7118 U WASH DEP PSYC; FOX WM, 1976, JSAS CATALOG SELECTE, V16; FOX WM, 1971, 701 OFF NAV RES TECH; GRUENFEL.LW, 1969, J SOC PSYCHOL, V79, P99, DOI 10.1080/00224545.1969.9922392; MULLER HP, 1970, J APPL PSYCHOL, V54, P140, DOI 10.1037/h0029057; OSGOOD CE, 1952, PSYCHOL BULL, V49, P251, DOI 10.1037/h0062981; REILLY AJ, 1968, THESIS IOWA STATE U; STINSON JE, 1972, STABILITY INTERPRETA; TUPES EC, 1961, ASDTR6197 LACKL AIR	13	5	5	0	3	ACAD MANAGEMENT	BRIARCLIFF MANOR	PACE UNIV, PO BOX 3020, 235 ELM RD, BRIARCLIFF MANOR, NY 10510-8020	0001-4273			ACAD MANAGE J	Acad. Manage. J.		1976	19	3					450	461		10.2307/255610				12	Business; Management	Business & Economics	CC627	WOS:A1976CC62700008					2019-01-18	
J	TAYLOR, RN; THOMPSON, M				TAYLOR, RN; THOMPSON, M			WORK VALUE-SYSTEMS OF YOUNG WORKERS	ACADEMY OF MANAGEMENT JOURNAL			English	Article									UNIV BRITISH COLUMBIA,FAC COMMERCE & BUSINESS ADM,VANCOUVER V6T 1W5,BRITISH COLUMBI,CANADA							ACE ME, 1972, J VOCAT BEHAV, V2, P191; ALTIMUS CA, 1973, ACAD MANAGE J, V16, P53, DOI 10.2307/255042; BLOOD MR, 1969, J APPL PSYCHOL, V53, P456, DOI 10.1037/h0028653; CARRELL MR, 1974, ACAD MANAGE J, V17, P368, DOI 10.2307/254991; CENTERS R, 1966, J APPL PSYCHOL, V50, P193, DOI 10.1037/h0023420; DZIUBAN CD, 1974, PSYCHOL BULL, V81, P358, DOI 10.1037/h0036316; FRIEDLANDER F, 1963, J APPL PSYCHOL, V47, P246, DOI 10.1037/h0041449; GIBSON JL, 1970, ACAD MANAGE J, V13, P411, DOI 10.2307/254831; GRAEN GB, 1971, J VOCAT BEHAV, V1, P343, DOI 10.1016/0001-8791(71)90035-2; GRAY JL, 1975, J BUSINESS ADM, V6, P41; Herzberg F., 1957, JOB ATTITUDES REV RE; HULIN CL, 1968, PSYCHOL BULL, V69, P41, DOI 10.1037/h0025356; HUNT JW, 1975, ACAD MANAGE J, V18, P690, DOI 10.2307/255372; JENKINS D, 1973, JOB POWER; Lyman EL, 1955, AM J SOCIOL, V61, P138, DOI 10.1086/221695; MINER JB, 1974, PERS PSYCHOL, V27, P605, DOI 10.1111/j.1744-6570.1974.tb01180.x; MINER JB, 1971, ADMINISTRATIVE SCI Q, V3, P351; NORTONTAYLOR D, 1966, FORTUNE, V76, P128; NORTONTAYLOR D, 1966, FORTUNE, V76, P166; QUINN R, 1973, MONTHLY LABOR REV, V0096; QUINN RP, 1970, SURVEY WORKING CONDI; SALEH SD, 1964, PERS PSYCHOL, V17, P425, DOI 10.1111/j.1744-6570.1964.tb00077.x; SALEH SD, 1974, J APPLIED PSYCHOLOGY, V58, P131; SHEPPARD HL, 1972, WHERE HAVE ALL ROBOT; *SURV RES CTR, 1971, 1969 1970 SURV WORK; TAYLOR RN, 1976, HDB ORGANIZATIONAL D; TRIANDIS HC, 1975, J APPL PSYCHOL, V60, P44, DOI 10.1037/h0076349; TURNER AN, 1965, INDUSTRIAL JOBS WORK; *U MICH SURV RES C, 1973, 1960 1970 SURV WORK; WILD R, 1970, J APPL PSYCHOL, V54, P157, DOI 10.1037/h0029055; WOLLACK S, 1971, J APPL PSYCHOL, V55, P331, DOI 10.1037/h0031531; YANKELOVICH D, 1974, NEW MORALITY PROFILE	32	26	27	0	4	ACAD MANAGEMENT	BRIARCLIFF MANOR	PACE UNIV, PO BOX 3020, 235 ELM RD, BRIARCLIFF MANOR, NY 10510-8020	0001-4273			ACAD MANAGE J	Acad. Manage. J.		1976	19	4					522	536		10.2307/255788				15	Business; Management	Business & Economics	CN653	WOS:A1976CN65300001					2019-01-18	
J	LONDON, M; OLDHAM, GR				LONDON, M; OLDHAM, GR			EFFECTS OF VARYING GOAL TYPES AND INCENTIVE SYSTEMS ON PERFORMANCE AND SATISFACTION	ACADEMY OF MANAGEMENT JOURNAL			English	Article									UNIV ILLINOIS,DEPT BUSINESS ADM,URBANA,IL 61801; UNIV ILLINOIS,INST LABOR & IND RELATIONS,URBANA,IL 61801							HAMNER WC, 1974, ORGAN BEHAV HUM PERF, V12, P217; LOCKE EA, 1968, ORGAN BEHAV HUM PERF, V3, P157, DOI 10.1016/0030-5073(68)90004-4; LOCKE EA, 1968, J APPL PSYCHOL, V52, P104, DOI 10.1037/h0025492; PRITCHAR.RD, 1973, ORGAN BEHAV HUM PERF, V10, P175, DOI 10.1016/0030-5073(73)90011-1; Rain A.P., 1974, MANAGING OBJECTIVES; STEERS RM, 1974, PSYCHOL BULL, V81, P434, DOI 10.1037/h0036775; Whyte W. F., 1955, MONEY AND MOTIVATION	7	29	29	2	5	ACAD MANAGEMENT	BRIARCLIFF MANOR	PACE UNIV, PO BOX 3020, 235 ELM RD, BRIARCLIFF MANOR, NY 10510-8020	0001-4273			ACAD MANAGE J	Acad. Manage. J.		1976	19	4					537	546		10.2307/255789				10	Business; Management	Business & Economics	CN653	WOS:A1976CN65300002					2019-01-18	
J	SIMS, HP; SZILAGYI, AD; MCKEMEY, DR				SIMS, HP; SZILAGYI, AD; MCKEMEY, DR			ANTECEDENTS OF WORK RELATED EXPECTANCIES	ACADEMY OF MANAGEMENT JOURNAL			English	Article									PENN STATE UNIV,UNIVERSITY PK,PA 16802; UNIV HOUSTON,HOUSTON,TX 77004; USAF,SCH LOGISTICS,WRIGHT PATTERSON AFB,OH							BEHLING O, 1973, ACAD MANAGE J, V16, P373, DOI 10.2307/254999; BERGER CJ, 1975, ORGAN BEHAV HUM PERF, V14, P227, DOI 10.1016/0030-5073(75)90026-4; BLALOCK HM, 1960, SOCIAL STATISTICS, P383; CAMPBELL JP, 1970, MANAGERIAL BEHAVIOR; DACHLER HP, 1973, J APPL PSYCHOL, V58, P397, DOI 10.1037/h0036297; DANSEREAU F, 1974, J APPL PSYCHOL, V59, P228; DOWNEY HK, 1975, ACAD MANAGE J, V18, P253, DOI 10.2307/255528; EVANS MG, 1974, J APPL PSYCHOL, V59, P172, DOI 10.1037/h0036516; EVANS MG, 1970, ORGAN BEHAV HUM PERF, V5, P277, DOI 10.1016/0030-5073(70)90021-8; FLEISHMAN EA, 1951, RELATIONSHIP BETWEEN; GOODMAN PS, 1973, ANTECEDENT FACTORS A; GOODMAN PS, 1973, ANTECEDENTS EXPECTAN; GRAEN G, 1969, J APPL PSYCHOL, V53, P1, DOI 10.1037/h0027100; Guilford J. P., 1954, PSYCHOMETRIC METHODS; HACKMAN JR, 1971, J APPL PSYCHOL, V55, P259, DOI 10.1037/h0031152; HARMAN HH, 1967, MODERN FACTOR ANAL, P269; HENEMAN HG, 1972, PSYCHOL BULL, V78, P1, DOI 10.1037/h0033093; HOUSE R, 1972, ORGANIZATIONAL PRACT; HOUSE RJ, 1972, J APPL PSYCHOL, V56, P388, DOI 10.1037/h0033444; HOUSE RJ, 1973, 2ND LEAD S CONT APPR; House RJ, 1974, DECISION SCI, V5, P481, DOI DOI 10.1111/J.1540-5915.1974.TB00632.X; IMPARATO N, 1972, J APPL PSYCHOL, V56, P397, DOI 10.1037/h0033445; JAMES LR, 1975, EXAMINATION RELATION; JORGENSON DO, 1973, J APPL PSYCHOL, V57, P271, DOI 10.1037/h0034717; KAISER HF, 1960, PSYCHOMETRIKA, V25, P153, DOI 10.1007/BF02288578; LAFOLLETTE W, UNPUBLISHED PAPER; LAWLER EE, 1973, ORGAN BEHAV HUM PERF, V9, P482, DOI 10.1016/0030-5073(73)90066-4; LAWLER EE, 1971, PAY ORGANIZATIONAL E; LAWLER EE, 1973, MOTIVATION WORK ORGA; LEFCOURT HM, 1966, PSYCHOL BULL, V65, P206, DOI 10.1037/h0023116; Lewin K, 1935, DYNAMIC THEORY PERSO; LEWIN K, 1938, CONTRIBUTIONS PSYCHO, V1; MACDONALD AP, 1974, MEASURES SOCIAL PSYC; MCKEMEY DR, UNPUBLISHED PAPER; MITCHELL TR, 1971, PSYCHOL BULL, V76, P432, DOI 10.1037/h0031831; MITCHELL TR, 1974, PSYCHOL BULL, V81, P1053, DOI 10.1037/h0037495; MITCHELL TR, 1972, ORGAN BEHAV HUM PERF, V8, P1, DOI 10.1016/0030-5073(72)90033-5; NIE NH, 1970, STATISTICAL PACKAGE; PENNELL R, 1968, PSYCHOMETRIKA, V33, P423, DOI 10.1007/BF02290161; Porter L.W., 1968, MANAGERIAL ATTITUDES; PRITCHARD RD, 1973, J APPL PSYCHOL, V57, P55, DOI 10.1037/h0034197; PRITCHARD RD, 1973, J APPL PSYCHOL, V57, P264, DOI 10.1037/h0034719; REINHARTH L, 1975, ACAD MANAGE J, V18, P520, DOI 10.2307/255682; REITZ HJ, 1971, 31ST AC MAN P ANN M, P227; ROTTER JB, 1966, PSYCHOL MONOGR, V80, P1, DOI 10.1037/h0092976; SAUNDERS DR, 1956, EDUC PSYCHOL MEAS, V16, P209, DOI 10.1177/001316445601600205; SCHULER R, UNPUBLISHED MANUSCRI; SCOTT WE, 1967, PERS PSYCHOL, V20, P179, DOI 10.1111/j.1744-6570.1967.tb02278.x; SHERIDAN JE, 1974, DECISION SCI, V5, P507; SIMS HP, 1976, ACAD MANAGE J, V19, P195, DOI 10.2307/255772; SIMS HP, 1975, ORGAN BEHAV HUM PERF, V14, P426, DOI 10.1016/0030-5073(75)90040-9; Smith D. C., 1969, MEASUREMENT SATISFAC; SZILAGYI A, IN PRESS; SZILAGYI AD, 1974, J APPL PSYCHOL, V59, P767, DOI 10.1037/h0037510; SZILAGYI AD, 1974, ACAD MANAGE J, V17, P622, DOI 10.2307/255642; TOLMAN EC, 1932, PURPOSIVE BEHAVIOR A; TURNEY JR, 1974, ORGAN BEHAV HUM PERF, V11, P65, DOI 10.1016/0030-5073(74)90005-1; TURNEY JR, 1972, 80TH P ANN CONV AM P; VROOM VH, 1964, WORK MOTIVATION	59	37	37	0	5	ACAD MANAGEMENT	BRIARCLIFF MANOR	PACE UNIV, PO BOX 3020, 235 ELM RD, BRIARCLIFF MANOR, NY 10510-8020	0001-4273			ACAD MANAGE J	Acad. Manage. J.		1976	19	4					547	559		10.2307/255790				13	Business; Management	Business & Economics	CN653	WOS:A1976CN65300003	1029351				2019-01-18	
J	HOLLMANN, RW				HOLLMANN, RW			SUPPORTIVE ORGANIZATIONAL-CLIMATE AND MANAGERIAL ASSESSMENT OF MBO EFFECTIVENESS	ACADEMY OF MANAGEMENT JOURNAL			English	Article									UNIV ARIZONA,COLL BUSINESS & PUBL ADM,TUCSON,AZ 85721							BURKE RJ, 1969, PERS PSYCHOL, V22, P291, DOI 10.1111/j.1744-6570.1969.tb00334.x; CARROLL SJ, 1969, 29TH P ANN M AC MAN, P139; CHESSER RJ, 1973, 33RD P ANN M AC MAN, P389; DIETERLY DL, 1974, ORGAN BEHAV HUM PERF, V11, P316, DOI 10.1016/0030-5073(74)90023-3; DOWNEY HK, 1975, ACAD MANAGE J, V18, P149, DOI 10.2307/255634; Drucker P., 1954, PRACTICE MANAGEMENT; DUNCAN RB, 1972, ADMIN SCI QUART, V17, P313, DOI 10.2307/2392145; FAY PP, 1974, PERS J, V53, P767; FRENCH JRP, 1966, HUM RELAT, V19, P3, DOI 10.1177/001872676601900101; FRIEDLANDER F, 1969, PERS PSYCHOL, V22, P171, DOI 10.1111/j.1744-6570.1969.tb02300.x; GOLEMBIEWSKI RT, 1971, ACAD MANAGE J, V14, P465, DOI 10.2307/255061; GOLEMBIEWSKI RT, 1970, ACAD MANAGE J, V13, P13, DOI 10.2307/254923; GOLEMBIEWSKI RT, 1973, ACAD MANAGE J, V16, P149, DOI 10.2307/255050; GOLEMBIEWSKI RT, 1970, ADMIN SCI QUART, V15, P330, DOI 10.2307/2391623; GOLEMBIEWSKI RT, 1972, RENEWING ORGANIZATIO; GRAHAM WK, 1969, PERS PSYCHOL, V22, P33, DOI 10.1111/j.1744-6570.1969.tb02053.x; GREINER LE, 1968, ORGANIZATIONAL CLIMA; GUION RM, 1973, ORGAN BEHAV HUM PERF, V9, P120, DOI 10.1016/0030-5073(73)90041-X; HAND HH, 1973, ACAD MANAGE J, V16, P185, DOI 10.2307/255321; HELLRIEGEL D, 1974, ACAD MANAGE J, V17, P255, DOI 10.2307/254979; HOUSE RJ, 1972, J APPL PSYCHOL, V56, P388, DOI 10.1037/h0033444; HUGHES CL, 1966, PERS J, V45, P335; INDIK BP, 1961, PERS PSYCHOL, V14, P357, DOI 10.1111/j.1744-6570.1961.tb01242.x; IVANCEVI.JM, 1970, PERS PSYCHOL, V23, P139, DOI 10.1111/j.1744-6570.1970.tb01642.x; IVANCEVICH JM, 1972, ADMIN SCI QUART, V17, P126, DOI 10.2307/2392101; IVANCEVICH JM, 1974, ADMIN SCI QUART, V19, P563, DOI 10.2307/2391811; JACKSON JH, 1972, PERS ADM PUB PERS R, V1, P72, DOI 10.1177/009102607200100214; JAMIESON BD, 1973, ACAD MANAGE J, V16, P496, DOI 10.2307/255009; JOHANNESSON RE, 1973, ORGAN BEHAV HUM PERF, V10, P118, DOI 10.1016/0030-5073(73)90008-1; KLEBER TP, 1972, PERS J, V51, P571; KRUSKAL WH, 1952, J AM STAT ASSOC, V47, P583; LAWLER EE, 1974, ORGAN BEHAV HUM PERF, V11, P139, DOI 10.1016/0030-5073(74)90010-5; Likert R., 1961, NEW PATTERNS MANAGEM; LIKERT R, 1967, HUMAN ORGANIZATION; LITWIN GH, 1968, MOTIVATION ORGANIZAT; Marrow Alfred J., 1967, MANAGEMENT PARTICIPA; MCCONKEY DD, 1972, PERS J, V51, P477; McGregor D, 1960, HUMAN SIDE ENTERPRIS; MEYER HH, 1965, HARVARD BUS REV, V43, P123; ODIORNE GS, 1974, BUS HORIZONS, V17, P13, DOI 10.1016/0007-6813(74)90069-X; OWENS J, 1974, MICHIGAN BUSINESS RE, V26, P11; PATTON R, 1969, THESIS U WASHINGTON; PAYNE RL, 1971, OCCUP PSYCHOL, V45, P45; PAYNE RL, 1971, ORGAN BEHAV HUM PERF, V6, P77, DOI 10.1016/0030-5073(71)90006-7; PAYNE RL, 1973, ADMIN SCI QUART, V18, P515, DOI 10.2307/2392203; PORTER L W, 1965, Psychol Bull, V64, P23, DOI 10.1037/h0022166; Porter L.W., 1968, MANAGERIAL ATTITUDES; PRITCHARD RD, 1973, ORGAN BEHAV HUM PERF, V9, P126, DOI 10.1016/0030-5073(73)90042-1; Raia A. P., 1965, J MANAGE STUD, V2, P34; RAIA AP, 1966, CALIF MANAGE REV, V8, P49, DOI 10.2307/41165697; RITCHIE JB, 1970, PERS PSYCHOL, V23, P347, DOI 10.1111/j.1744-6570.1970.tb01661.x; SCANLAN BK, 1968, PERS J, V47, P162; SCHNEIDER B, 1968, PERS PSYCHOL, V21, P323, DOI 10.1111/j.1744-6570.1968.tb02033.x; SCHNEIDER B, 1972, J APPL PSYCHOL, V56, P211, DOI 10.1037/h0033103; Schneider B., 1970, PERS PSYCHOL, V23, P493; SCHUSTER FE, 1974, HUMAN RESOURCE MANAG, V13, P8; SIMS HP, 1975, PERS PSYCHOL, V28, P19, DOI 10.1111/j.1744-6570.1975.tb00388.x; TOSI H, 1973, CALIF MANAGE REV, V16, P57, DOI 10.2307/41164478; TOSI H, 1970, PERS PSYCHOL, V23, P91, DOI 10.1111/j.1744-6570.1970.tb01638.x; TOSI HL, 1969, MSU BUS TOPICS-MICH, V17, P45; TOSI HL, 1968, ACAD MANAGE J, V11, P415, DOI 10.2307/254890; TOSI HL, 1970, J MANAGEMENT STUDIES, V7, P209; VROOM VH, 1960, SOME PERSONALITY DET; WALLACE MJ, 1975, ACAD MANAGE J, V18, P82, DOI 10.2307/255627; WATERS LK, 1974, PERS PSYCHOL, V27, P465, DOI 10.1111/j.1744-6570.1974.tb01168.x; WHITE DD, 1973, ACAD MANAGE J, V16, P636, DOI 10.2307/254696; WHITE JK, 1973, ADMIN SCI QUART, V18, P506, DOI 10.2307/2392202; WILKINSON B, 1951, PSYCHOL BULL, V48, P156, DOI 10.1037/h0059111; 1973, ADMINISTRATIVE MANAG, V34, P26	69	11	11	1	9	ACAD MANAGEMENT	BRIARCLIFF MANOR	PACE UNIV, PO BOX 3020, 235 ELM RD, BRIARCLIFF MANOR, NY 10510-8020	0001-4273			ACAD MANAGE J	Acad. Manage. J.		1976	19	4					560	576		10.2307/255791				17	Business; Management	Business & Economics	CN653	WOS:A1976CN65300004					2019-01-18	
J	SCHEWE, CD				SCHEWE, CD			MANAGEMENT INFORMATION-SYSTEM USER - EXPLORATORY BEHAVIORAL-ANALYSIS	ACADEMY OF MANAGEMENT JOURNAL			English	Article									UNIV MASSACHUSETTS,SCH BUSINESS ADM,AMHERST,MA 01002							AMSTUTZ AE, 1969, J MARKETING RES, V6, P481, DOI 10.2307/3150088; BRADY RH, 1967, IMPACT OFFICE AUTOMA; BURACK EH, 1973, HUMAN RESEARCH PLANN; Churchill N. C., 1969, COMPUTER BASED INFOR; DICKSON GW, 1970, BUSINESS HORIZONS, V11, P59; FISHBEIN M, 1967, READINGS ATTITUDE TH, P477; LUCAS HC, 1975, MANAGE SCI B-APPL, V21, P908, DOI 10.1287/mnsc.21.8.908; MASON RO, 1973, MANAGE SCI, V19, P475, DOI 10.1287/mnsc.19.5.475; MONTGOMERY DB, 1970, J MARKETING RES, V7, P226, DOI 10.2307/3150113; REIF WE, 1968, COMPUTER TECHNOLOGY; Rokeach M., 1973, NATURE HUMAN VALUES; SCHEWE CD, UNPUBLISHED PAPER; SWANSON EB, 1974, MANAGE SCI, V21, P189; WHISLER T, 1967, IMPACT EDP LIFE CO O	14	83	84	0	3	ACAD MANAGEMENT	BRIARCLIFF MANOR	PACE UNIV, PO BOX 3020, 235 ELM RD, BRIARCLIFF MANOR, NY 10510-8020	0001-4273			ACAD MANAGE J	Acad. Manage. J.		1976	19	4					577	590		10.2307/255792				14	Business; Management	Business & Economics	CN653	WOS:A1976CN65300005					2019-01-18	
J	HUNGER, JD; STERN, LW				HUNGER, JD; STERN, LW			ASSESSMENT OF FUNCTIONALITY OF SUPERORDINATE GOAL IN REDUCING CONFLICT	ACADEMY OF MANAGEMENT JOURNAL			English	Article									UNIV VIRGINIA,CHARLOTTESVILLE,VA 22903; NORTHWESTERN UNIV,EVANSTON,IL 60201							Bales R. F, 1950, INTERACTION PROCESS; BASS BM, 1963, J CONFLICT RESOLUT, V7, P16; BLAKE RR, 1964, MANAGING INTERGROUP; Coser Lewis, 1956, FUNCTIONS SOCIAL CON; Deutsch Morton, 1973, RESOLUTION CONFLICT; EDWARDS AL, 1957, TECHNIQUES ATTITUDE; HUNGER JD, 1973, THESIS OHIO STATE U; JOHNSON DW, 1969, J APPL BEHAV SCI, V5, P9, DOI 10.1177/002188636900500102; LAWRENCE PR, 1965, ORGANIZATION BEHAVIO; MANHEIM HL, 1960, SOCIOMETRY, V23, P415, DOI 10.2307/2785694; PONDY LR, 1967, ADMIN SCI QUART, V12, P296, DOI 10.2307/2391553; ROBBINS SP, 1974, MANAGING ORGANIZATIO; SHERIF M, 1969, SOCIAL PSYCHOLOGY; Sherif M., 1961, INTERGROUP CONFLICT; Siegel S., 1956, NONPARAMETRIC STATIS; STERN LW, 1973, J MARKETING RES, V10, P169, DOI 10.2307/3149822; STERN LW, 1975, J APPL PSYCHOL, V60, P472, DOI 10.1037/h0076923; STERN LW, 1973, INT J GROUP TENSION, V3, P68; STERN LW, 1971, CONTRACTUAL MARKETIN; THOMAS K, 1976, HDB INDUSTRIAL ORGAN	20	26	26	1	6	ACAD MANAGEMENT	BRIARCLIFF MANOR	PACE UNIV, PO BOX 3020, 235 ELM RD, BRIARCLIFF MANOR, NY 10510-8020	0001-4273			ACAD MANAGE J	Acad. Manage. J.		1976	19	4					591	605		10.2307/255793				15	Business; Management	Business & Economics	CN653	WOS:A1976CN65300006					2019-01-18	
J	UTECHT, RE; HEIER, WD				UTECHT, RE; HEIER, WD			CONTINGENCY-MODEL AND SUCCESSFUL MILITARY LEADERSHIP	ACADEMY OF MANAGEMENT JOURNAL			English	Article									PAN AMER UNIV,BROWNSVILLE,TX 78520; ARIZONA STATE UNIV,TEMPE,AZ 85281							*AIR COMM STAFF CO, 1965, FUND COMM STAFF; Fiedler F. E., 1967, THEORY LEADERSHIP EF; HILL W, 1969, ACAD MANAGE J, V12, P33, DOI 10.2307/254670; HOPFE MW, 1970, ACAD MANAGE J, V13, P301, DOI 10.2307/254966; HUNT JG, 1967, ORGAN BEHAV HUM PERF, V2, P290, DOI 10.1016/0030-5073(67)90023-2; MITCHELL TR, 1970, ACAD MANAGE J, V13, P253, DOI 10.2307/254963; Morris Janowitz, 1960, PROFESSIONAL SOLDIER; STEELE WS, 1965, P ANNUAL M ACADEMY M, P24	8	3	3	0	5	ACAD MANAGEMENT	BRIARCLIFF MANOR	PACE UNIV, PO BOX 3020, 235 ELM RD, BRIARCLIFF MANOR, NY 10510-8020	0001-4273			ACAD MANAGE J	Acad. Manage. J.		1976	19	4					606	618		10.2307/255794				13	Business; Management	Business & Economics	CN653	WOS:A1976CN65300007					2019-01-18	
J	KELLER, RT; SZILAGYI, AD				KELLER, RT; SZILAGYI, AD			EMPLOYEE REACTIONS TO LEADER REWARD BEHAVIOR	ACADEMY OF MANAGEMENT JOURNAL			English	Article									UNIV HOUSTON,HOUSTON,TX 77004							CHERRINGTON DJ, 1971, J APPL PSYCHOL, V55, P531, DOI 10.1037/h0032041; DESSLER G, 1972, 31ST AC MAN P ANN M, P178; GEORGOPOULOS BS, 1957, J APPL PSYCHOL, V41, P345, DOI 10.1037/h0048473; HAMNER WC, 1974, ORGANIZATIONAL BEHAV; HARMAN HH, 1967, MODERN FACTOR ANALYS; HOUSE RJ, 1971, ADMIN SCI QUART, V16, P19, DOI 10.2307/2391283; HOUSE RJ, 1973, 2ND LEAD S CONT APPR; HOUSE RJ, UNPUBLISHED MANUSCRI; IMPARATO N, 1972, J APPL PSYCHOL, V56, P397, DOI 10.1037/h0033445; JABLONSKY SF, 1972, ORGAN BEHAV HUM PERF, V7, P340, DOI 10.1016/0030-5073(72)90021-9; KRAMER CY, 1956, BIOMETRICS, V12, P307, DOI 10.2307/3001469; MAIER NRF, 1973, PSYCHOLOGY INDUSTRIA; NORD WR, 1969, ORGAN BEHAV HUM PERF, V4, P375, DOI 10.1016/0030-5073(69)90017-8; Porter L.W., 1968, MANAGERIAL ATTITUDES; REITZ HJ, 1971, 31ST P ANN M AC MAN; RIZZO JR, 1970, ADMIN SCI QUART, V15, P150, DOI 10.2307/2391486; SIMS HP, IN PRESS; Skinner B. F., 1969, CONTINGENCIES REINFO; Smith P. C., 1969, MEASUREMENT SATISFAC; SMITH PC, 1974, J APPL PSYCHOL, V59, P99, DOI 10.1037/h0035828; Stogdill R., 1974, HDB LEADERSHIP; STOGDILL RM, 1963, MANUAL LEADER BEHAVI; SZILAGYI AD, 1974, J APPL PSYCHOL, V59, P767, DOI 10.1037/h0037510; SZILAGYI AD, 1976, ACAD MANAGE J, V19, P259, DOI 10.2307/255776; SZILAGYI AD, 1974, ACAD MANAGE J, V17, P622, DOI 10.2307/255642; TOPPEN JT, 1965, PERCEPT MOTOR SKILL, V21, P907, DOI 10.2466/pms.1965.21.3.907; VROOM VH, 1964, WORK MOTIVATION; WIARD H, 1972, HUMAN RESOURCE M SUM, P15; 1973, ORGANIZATIONAL DYNAM, V1, P41	29	24	25	0	6	ACAD MANAGEMENT	BRIARCLIFF MANOR	PACE UNIV, PO BOX 3020, 235 ELM RD, BRIARCLIFF MANOR, NY 10510-8020	0001-4273			ACAD MANAGE J	Acad. Manage. J.		1976	19	4					619	627		10.2307/255795				9	Business; Management	Business & Economics	CN653	WOS:A1976CN65300008					2019-01-18	
J	LARSON, LL; HUNT, JG; OSBORN, RN				LARSON, LL; HUNT, JG; OSBORN, RN			GREAT HI-HI LEADER-BEHAVIOR MYTH - LESSON FROM OCCAMS RAZOR	ACADEMY OF MANAGEMENT JOURNAL			English	Article									SO ILLINOIS UNIV,CARBONDALE,IL 62901							BARRETT RS, 1958, PERS PSYCHOL, V11, P333, DOI 10.1111/j.1744-6570.1958.tb00021.x; BESCO RO, 1959, PERS PSYCHOL, V12, P573, DOI 10.1111/j.1744-6570.1959.tb01344.x; BOYLES BR, 1968, DISS ABSTR B, V28, P4788; CAMPBELL JP, 1970, MANAGERIAL BEHAVIOR; COHEN J, 1968, PSYCHOL BULL, V70, P426, DOI 10.1037/h0026714; EVANS M, 1973, CURRENT DEV STUDY LE, P174; EVANS MG, 1970, ORGAN BEHAV HUM PERF, V5, P277, DOI 10.1016/0030-5073(70)90021-8; Fleishman E. A., 1973, CURRENT DEV STUDY LE, P1; FLEISHMAN EA, 1962, PERS PSYCHOL, V15, P43, DOI 10.1111/j.1744-6570.1962.tb01845.x; FLEISHMAN EA, 1970, PERS PSYCHOL, V23, P169, DOI 10.1111/j.1744-6570.1970.tb01644.x; FLEISHMAN EA, 1973, CURRENT DEVELOPMENTS; GEORGOPOLOUS BS, 1962, COMMUNITY GENERAL HO; GRAEN G, 1972, ORGAN BEHAV HUM PERF, V7, P216, DOI 10.1016/0030-5073(72)90016-5; GRAEN G, 1975, LEADERSHIP FRONTIERS, P143; HALPIN AW, 1957, LEADER BEHAVIOR ITS; HEMPHILL JK, 1955, J EDUC PSYCHOL, V46, P385; HOUSE RJ, 1971, J APPL PSYCHOL, V55, P422, DOI 10.1037/h0031775; HOUSE RJ, 1971, ADMIN SCI QUART, V16, P19, DOI 10.2307/2391283; HUNT JG, 1975, ACAD MANAGE J, V18, P476, DOI 10.2307/255678; HUNT JG, 1974, CONTINGENCY APPROACH; HUNT JG, 1973, 1RO1MH1741601 CONTR; HUNT JG, 1975, LEADERSHIP FRONTIERS; KERR S, 1974, ORGAN BEHAV HUM PERF, V12, P62, DOI 10.1016/0030-5073(74)90037-3; MCNEIL KA, 1975, TESTING RESEARCH HYP; MISUMI J, 1965, JPN PSYCHOL RES, V7, P151, DOI 10.4992/psycholres1954.7.151; MISUMI J, 1966, HUM RELAT, V19, P297, DOI 10.1177/001872676601900304; PRIEN E, 1974, CONTINGENCY APPROACH, P153; SCHRIESHEIM C, 1974, PSYCHOL BULL, V81, P756, DOI 10.1037/h0037277; SCHRIESHEIM CA, 1975, PERS PSYCHOL, V28, P189, DOI 10.1111/j.1744-6570.1975.tb01380.x; SCHRIESHEIM CA, 1976, ORGAN BEHAV HUM PERF, V15, P297, DOI 10.1016/0030-5073(76)90043-X; Smith P. C., 1969, MEASUREMENT SATISFAC; Stogdill R., 1974, HDB LEADERSHIP; STOGDILL RM, 1957, LEADER BEHAVIOR ITS; STOGDILL RM, 1963, MANUAL LEADER BEHAVI; WHITLOCK GH, 1963, J APPL PSYCHOL, V47, P15, DOI 10.1037/h0048630	35	40	40	0	3	ACAD MANAGEMENT	BRIARCLIFF MANOR	PACE UNIV, PO BOX 3020, 235 ELM RD, BRIARCLIFF MANOR, NY 10510-8020	0001-4273			ACAD MANAGE J	Acad. Manage. J.		1976	19	4					628	641		10.2307/255796				14	Business; Management	Business & Economics	CN653	WOS:A1976CN65300009					2019-01-18	
J	CZEPIEL, JA				CZEPIEL, JA			PATTERNS OF INTERORGANIZATIONAL COMMUNICATIONS AND DIFFUSION OF A MAJOR TECHNOLOGICAL INNOVATION IN A COMPETITIVE INDUSTRIAL COMMUNITY	ACADEMY OF MANAGEMENT JOURNAL			English	Article									NYU,GRAD SCH BUSINESS ADM,NEW YORK,NY 10003; NYU,INST RETAIL MANAGEMENT,NEW YORK,NY							ALBA RD, 1972, GRAPH THEORETIC DEFI; ALLVINE FC, 1968, MARKETING NEW SCIENC, P341; *AM IR STEEL I, 1971, STEEL INDUSTRY TODAY; ASSAEL H, 1968, J MARKETING, V32, P21, DOI 10.2307/1248924; ASSAEL H, 1969, ADMIN SCI QUART, V14, P573, DOI 10.2307/2391595; BATY GB, 1971, ADMIN SCI QUART, V16, P430, DOI 10.2307/2391763; BECKER MH, 1970, AM J PUBLIC HEALTH N, V60, P294, DOI 10.2105/AJPH.60.2.294; BECKER MH, 1970, AM SOCIOLOGICAL REV, V35, P294; COLEMAN JS, 1966, MEDICAL INNOVATION D; ENOS JL, 1958, J IND ECON, V6, P180, DOI 10.2307/2097628; Evan W., 1972, INTERORGANIZATIONAL, P181; Evan W.M., 1966, APPROACHES ORG DESIG, P174; Festinger L., 1950, SOCIAL PRESSURES INF; Forsyth E, 1946, SOCIOMETRY, V9, P340, DOI 10.2307/2785498; GOLD B, 1970, J IND ECON, V18, P218, DOI 10.2307/2097611; GUETZKOW H, 1966, STUDIES BEHAVIOR ORG, P13; KATZ E, 1963, AM SOCIOL REV, V28, P237, DOI 10.2307/2090611; LEVINE JH, 1972, AM SOCIOL REV, V37, P14, DOI 10.2307/2093490; LITWAK E, 1962, ADMIN SCI QUART, V6, P395, DOI 10.2307/2390723; MANSFIELD E, 1968, INDUSTRIAL RESEARCH; MANSFIELD E, 1968, ECONOMICS TECHNOLOGI; MARTILLA JA, 1971, J MARKETING RES, V8, P173, DOI 10.2307/3149757; MERRILL FE, 1969, SOC CULTURE; MILLER RE, 1971, INNOVATION ORGANIZAT; MOORE WE, 1971, ENCYCLOPEDIA AMERICA, V25, P212; NOLL FC, 1967, EMERGENT AM SOC, V1, P276; OZANNE UB, 1968, MARKETING NEW SCI PL, P352; PFEFFER J, 1972, ACAD MANAGE J, V15, P317, DOI 10.2307/254856; PHILLIPS A, 1962, MARKET STRUCTURE ORG; PROCTOR CH, 1951, RESEARCH METHODS S 2; PRUDEN HO, 1969, ACAD MANAGE J, V12, P339, DOI 10.2307/255181; Radnor M, 1972, INTERORGANIZATIONAL; Rogers E, 1962, DIFFUSION INNOVATION; Rogers E. M., 1971, COMMUNICATION INNOVA; ROGERS EM, 1970, PUBLIC OPIN QUART, V34, P523, DOI 10.1086/267838; ROSENBERG LJ, 1971, J MARKETING RES, V8, P437, DOI 10.2307/3150233; STERN LW, 1973, MANAGING CONFLICT DI; STERN LW, 1971, J AM FOREIGN ANTITRU, V16, P509; STERN LW, 1970, 54 U CAL I BUS EC RE; Warner W. L., 1967, EMERGENT AM SOC, VVol. 1, P314; WARREN RL, 1967, ADMIN SCI QUART, V12, P396, DOI 10.2307/2391312; WEBSTER FE, 1970, J MARKETING RES, V7, P186, DOI 10.2307/3150107; WEBSTER FE, 1969, J MARKETING, V33, P35, DOI 10.2307/1248478; WEBSTER FE, 1967, DIFFUSION INNOVATION; WEBSTER FE, 1971, COMMUNICATION DIFFUS	45	44	47	0	9	ACAD MANAGEMENT	BRIARCLIFF MANOR	PACE UNIV, PO BOX 3020, 235 ELM RD, BRIARCLIFF MANOR, NY 10510-8020	0001-4273			ACAD MANAGE J	Acad. Manage. J.		1975	18	1					6	24		10.2307/255621				19	Business; Management	Business & Economics	V8381	WOS:A1975V838100001					2019-01-18	
J	WYNNE, BE; DICKSON, GW				WYNNE, BE; DICKSON, GW			EXPERIENCED MANAGERS PERFORMANCE IN EXPERIMENTAL MAN-MACHINE DECISION SYSTEM SIMULATION	ACADEMY OF MANAGEMENT JOURNAL			English	Article									UNIV WISCONSIN,MILWAUKEE,WI 53201; UNIV MINNESOTA,MINNEAPOLIS,MN							ALPERT R, 1960, J ABNORM SOC PSYCH, V61, P207, DOI 10.1037/h0045464; Atkinson J., 1966, THEORY ACHIEVEMENT M; CROWNE DP, 1960, J CONSULT PSYCHOL, V24, P349, DOI 10.1037/h0047358; FERGUSON RL, 1969, MANAGEMENT SCIENCE, V15; GERRITY TP, 1971, SLOAN MANAGE REV, V12, P59; GOETZ BE, 1969, MANAGE SCI B-APPL, V15, pB506; GREENBERGER M, 1962, COMPUTERS WORLD FUTU; HABERSTROH CJ, 1965, HDB ORGANIZATIONS; HERMANS HJM, 1970, J APPL PSYCHOL, V54, P353, DOI 10.1037/h0029675; Kogan N., 1964, RISK TAKING STUDY CO; LOCKE EA, 1970, ORGAN BEHAV HUM PERF, V5, P135, DOI 10.1016/0030-5073(70)90011-5; MALCOLMB D, 1961, MANAGEMENT CONTROL S; MCKENNEY JL, 1974, HARVARD BUS REV, V52, P79; MCKINSEY, 1968, UNLOCKING COMPUTERS; PROKOP JS, 1970, FAL P AFIPS JOINT CO, P599; Sackman H., 1970, MAN COMPUTER PROBLEM; SCHROEDER HM, 1967, HUMAN INFORMATION PR; SCHWARTZ MH, 1971, 3 P ANN C SOC MAN IN; SIMON HA, 1971, HUMAN PROBLEM SOLVIN; WEICK KE, 1969, SOCIAL PSYCHOLOGY OR; WYNNE BE, 1974, 34 ANN M NAT AC MAN; WYNNE BE, 1972, EVALUATION EFFECTIVE	22	8	8	1	4	ACAD MANAGEMENT	BRIARCLIFF MANOR	PACE UNIV, PO BOX 3020, 235 ELM RD, BRIARCLIFF MANOR, NY 10510-8020	0001-4273			ACAD MANAGE J	Acad. Manage. J.		1975	18	1					25	40		10.2307/255622				16	Business; Management	Business & Economics	V8381	WOS:A1975V838100002					2019-01-18	
J	JOHNSON, TE; WERNER, DJ				JOHNSON, TE; WERNER, DJ			MANAGEMENT EDUCATION - INTERDISCIPLINARY PROBLEM-SOLVING APPROACH	ACADEMY OF MANAGEMENT JOURNAL			English	Article									UNIV S FLORIDA,COLL BUSINESS ADM,TAMPA,FL 33620; SO ILLINOIS UNIV,SCH BUSINESS,EDWARDSVILLE,IL 62025							AULT D, 1974, J ECON EDUC, V5, P129, DOI 10.2307/1182658; CAMPBELL DT, 1963, HDB RESEARCH TEACHIN; GARDINER GS, 1974, ACAD MANAGE J, V17, P375, DOI 10.2307/254993; GARDINER GS, 1972, PSYCHOL REP, V31, P959, DOI 10.2466/pr0.1972.31.3.959; Hall A.D., 1962, METHODOLOGY SYSTEMS; HARRICK EJ, 1973, MIDWEST BUSINESS ADM; JOHNSON TE, 1973, APPLICATIONS ISSUES, P153; QUADE ES, 1967, ANALYSIS MILITARY DE; SCHRODER HM, 1971, PERSONALITY THEORY I; Werner D. J., 1973, Journal of Systems Management, V24, P34; WHITMORE WJ, 1972, MARKETING EDUCATORS	11	1	1	0	2	ACAD MANAGEMENT	BRIARCLIFF MANOR	PACE UNIV, PO BOX 3020, 235 ELM RD, BRIARCLIFF MANOR, NY 10510-8020	0001-4273			ACAD MANAGE J	Acad. Manage. J.		1975	18	2					27	287						261	Business; Management	Business & Economics	AE039	WOS:A1975AE03900006					2019-01-18	
J	AGGARWAL, SC; DHAVALE, DG				AGGARWAL, SC; DHAVALE, DG			SIMULATION ANALYSIS OF A MULTIPRODUCT MULTIECHELON INVENTORY-DISTRIBUTION SYSTEM	ACADEMY OF MANAGEMENT JOURNAL			English	Article									PENN STATE UNIV,UNIVERSITY PK,PA 16802; UNIV NO IOWA,CEDAR FALLS,IA							AGGARWAL SC, 1973, PRODUCTION INVENTORY, V14, P71; Arrow KJ, 1951, ECONOMETRICA, V19, P250, DOI 10.2307/1906813; CLARK AJ, 1960, MANAGE SCI, V6, P475, DOI 10.1287/mnsc.6.4.475; CONNORS MM, 1972, MANAGE SCI B-APPL, V18, pB425; Curry GL, 1970, AIIE T, V2, P263; PORTEUS EL, 1971, MANAGE SCI, V17, P411, DOI 10.1287/mnsc.17.7.411; VEINOTT AF, 1965, MANAGE SCI, V11, P525, DOI 10.1287/mnsc.11.5.525; Wagner HM, 1969, PRINCIPLES OPERATION; Zangwill W., 1966, MANAGE SCI, V13, P105; ZANGWILL WI, 1966, OPER RES, V14, P486, DOI 10.1287/opre.14.3.486	10	3	3	0	4	ACAD MANAGEMENT	BRIARCLIFF MANOR	PACE UNIV, PO BOX 3020, 235 ELM RD, BRIARCLIFF MANOR, NY 10510-8020	0001-4273			ACAD MANAGE J	Acad. Manage. J.		1975	18	1					41	54		10.2307/255623				14	Business; Management	Business & Economics	V8381	WOS:A1975V838100003					2019-01-18	
J	HALLAM, SF				HALLAM, SF			EMPIRICAL INVESTIGATION OF OBJECTIVES AND CONSTRAINTS OF ELECTRONIC DATA PROCESSING DEPARTMENTS	ACADEMY OF MANAGEMENT JOURNAL			English	Article									NO ILLINOIS UNIV,DEKALB,IL 60115							CHARNES A, 1961, MANAGEMENT MODELS IN; Emshoff J. R, 1970, DESIGN USE COMPUTER; Ijiri Y., 1965, MANAGEMENT GOALS ACC; Lee S. M., 1972, GOAL PROGRAMMING DEC; MAISEL H, 1972, SIMULATION DISCRETE; Naylor T. H., 1971, COMPUTER SIMULATION; RAU P, 1972, DATAMATION       SEP, P72; SHARPE WF, 1969, ECONOMICS COMPUTERS; WEISER AL, 1970, DATA PROCESSING  JUL, P29	9	1	1	0	3	ACAD MANAGEMENT	BRIARCLIFF MANOR	PACE UNIV, PO BOX 3020, 235 ELM RD, BRIARCLIFF MANOR, NY 10510-8020	0001-4273			ACAD MANAGE J	Acad. Manage. J.		1975	18	1					55	62		10.2307/255624				8	Business; Management	Business & Economics	V8381	WOS:A1975V838100004					2019-01-18	
J	GREEN, TB				GREEN, TB			EMPIRICAL ANALYSIS OF NOMINAL AND INTERACTING GROUPS	ACADEMY OF MANAGEMENT JOURNAL			English	Article									MISSISSIPPI STATE UNIV,COLL BUSINESS & IND,STATE COLL,MS 39762							BOUCHARD TJ, 1970, J APPL PSYCHOL, V54, P51, DOI 10.1037/h0028621; Delbecq A. L., 1970, ACADEMY MANAGEMENT P, P208; DELBECQ AL, 1971, J APPL BEHAV SCI, V7, P466, DOI 10.1177/002188637100700404; DELBECQ AL, 1972, ACADEMY MANAGEMENT P, P28; DUNNETTE MD, 1963, J APPL PSYCHOL, V47, P30, DOI 10.1037/h0049218; GREEN TB, 1974, MSU BUS TOP-MICH ST, V22, P37; GREEN TB, 1974, ACADEMY MANAGEMENT M; GUSTAFSON DH, 1973, ORGAN BEHAV HUM PERF, V9, P280, DOI 10.1016/0030-5073(73)90052-4; HOFFMAN LR, 1961, J ABNORM SOC PSYCH, V62, P401, DOI 10.1037/h0044025; HOFFMAN LR, 1959, J ABNORM SOC PSYCH, V58, P27, DOI 10.1037/h0043499; HUSEMAN RC, 1974, PERS J, V53, P124; HUSEMAN RC, 1972, J ORGANIZATIONAL SUM, P19; KNIPPEN JT, 1974, ACADEMY MANAGEMENT M; LEADER A, 1963, THESIS INDIANA U; Maier NRF, 1952, HUM RELAT, V5, P277, DOI 10.1177/001872675200500303; MOSLEY DC, 1974, TRAIN DEV J, V28, P30; PARNES SJ, 1959, J EDUC PSYCHOL, V50, P171, DOI 10.1037/h0047223; TAYLOR DW, 1958, ADMIN SCI QUART, V3, P23, DOI 10.2307/2390603; VANDEVEN A, 1971, ACAD MANAGE J, V14, P203, DOI 10.2307/255307; VANDEVEN A, 1972, J AM PUBLIC HLTH MAR, P337; VANDEVEN AH, 1974, ACAD MANAGE J, V17, P605, DOI 10.2307/255641; VANDEVEN AH, 1972, AM SOCIOLOGICAL ASSO; VROMAN HW, 1974, 1 ANN MIAM C PROGR P; ZOGONA SV, 1966, J PSYCHOLOGY, V62, P111	24	29	29	0	6	ACAD MANAGEMENT	BRIARCLIFF MANOR	PACE UNIV, PO BOX 3020, 235 ELM RD, BRIARCLIFF MANOR, NY 10510-8020	0001-4273			ACAD MANAGE J	Acad. Manage. J.		1975	18	1					63	73		10.2307/255625				11	Business; Management	Business & Economics	V8381	WOS:A1975V838100005					2019-01-18	
J	TAYLOR, RN				TAYLOR, RN			AGE AND EXPERIENCE AS DETERMINANTS OF MANAGERIAL INFORMATION PROCESSING AND DECISION MAKING PERFORMANCE	ACADEMY OF MANAGEMENT JOURNAL			English	Article									UNIV BRITISH COLUMBIA,VANCOUVER,BRITISH COLUMBI,CANADA							BIRREN JC, 1964, INTERDISCIPLINARY TO, P23; Braybrooke D., 1963, STRATEGY DECISION; CLARKSON GP, 1962, PORTFOLIO SELECTION; CYERT RM, 1963, BEHAVIORAL THEORY FI; KIRCHNER WK, 1958, J EXP PSYCHOL, V55, P352, DOI 10.1037/h0043688; MACCRIMMON KR, HDB INDUSTRIAL ORGAN; SIMON HA, 1957, ADMINISTRATIVE BEHAV; SLOVIC P, 1972, J FINANC, V27, P779, DOI 10.2307/2978668; SURWILLO WW, 1964, ELECTROEN CLIN NEURO, V16, P510, DOI 10.1016/0013-4694(64)90092-6; TAYLOR RN, 1970, THESIS U MINNESOTA; WEIR MW, 1964, PSYCHOL REV, V71, P473, DOI 10.1037/h0041785; WOHLWILL JF, 1970, PSYCHOL REV, V77, P49, DOI 10.1037/h0028600	12	117	124	1	14	ACAD MANAGEMENT	BRIARCLIFF MANOR	PACE UNIV, PO BOX 3020, 235 ELM RD, BRIARCLIFF MANOR, NY 10510-8020	0001-4273			ACAD MANAGE J	Acad. Manage. J.		1975	18	1					74	81		10.2307/255626				8	Business; Management	Business & Economics	V8381	WOS:A1975V838100006					2019-01-18	
J	WALLACE, MJ; IVANCEVICH, JM; LYON, HL				WALLACE, MJ; IVANCEVICH, JM; LYON, HL			MEASUREMENT MODIFICATIONS FOR ASSESSING ORGANIZATIONAL CLIMATE IN HOSPITALS	ACADEMY OF MANAGEMENT JOURNAL			English	Article									UNIV KENTUCKY,LEXINGTON,KY 40506; UNIV HOUSTON,HOUSTON,TX							*AM HOSP ASSOC, 1973, AHA 1973 GUIDE HLTH; ASTIN AW, 1961, J EDUC PSYCHOL, V52, P308, DOI 10.1037/h0040137; CAMPBELL JP, 1970, MANAGERIAL BEHAVIOR; CRONBACH LJ, 1972, DEPENDABILITY BEHAVI; CRONBACH LJ, 1951, PSYCHOMETRIKA, V16, P297; FREDERICKSON N, 1966, RM6621 ED TEST SERV; FRIEDLANDER F, 1971, J APPL PSYCHOL, V55, P287, DOI 10.1037/h0031532; FRIEDLANDER F, 1969, PERS PSYCHOL, V22, P171, DOI 10.1111/j.1744-6570.1969.tb02300.x; GEORGE JR, 1971, ADMIN SCI QUART, V16, P467, DOI 10.2307/2391766; GUION RM, 1973, ORGAN BEHAV HUM PERF, V9, P120, DOI 10.1016/0030-5073(73)90041-X; HALPIN AW, 1963, ORGANIZATIONAL CLIMA; HARMON HH, 1960, MODERN FACTOR ANALYS; HELLRIEGEL D, 1974, ACAD MANAGE J, V17, P255, DOI 10.2307/254979; JOHANNESSON RE, 1973, ORGAN BEHAV HUM PERF, V10, P118, DOI 10.1016/0030-5073(73)90008-1; JOHANNESSON RE, 1971, NEW DEVELOPMENTS MAN, P27; LITWIN GH, 1968, MOTIVATION ORGANIZAT; LOFQUIST LH, 1969, ADJUSTMENT WORK; LOFQUIST LH, 1972, 58 MINN STUD VOC REH; MARGUILES N, 1965, THESIS U CALIFORNIA; MCCARREY MW, 1973, ORGAN BEHAV HUM PERF, V9, P439, DOI 10.1016/0030-5073(73)90064-0; MEYER HH, 1968, ORGANIZATIONAL CLIMA; NIE NH, 1970, STATISTICAL PACKAGE; Nunnally JC, 1967, PSYCHOMETRIC THEORY; PACE CR, 1958, J EDUC PSYCHOL, V49, P269, DOI 10.1037/h0047828; PAYNE RL, 1971, ORGAN BEHAV HUM PERF, V6, P77, DOI 10.1016/0030-5073(71)90006-7; PAYNE RL, 1973, ADMIN SCI QUART, V18, P515, DOI 10.2307/2392203; PRITCHARD R, 1973, ORGANIZATIONAL BEHAV, V9, P110; SCHNEIDER B, 1973, J APPL PSYCHOL, V57, P248, DOI 10.1037/h0034724; TAYLOR JC, 1972, SURVEY ORGANIZATIONS; THORTON GC, 1969, EXPTL PUBLICATION SY, V2, pA57	30	8	8	0	1	ACAD MANAGEMENT	BRIARCLIFF MANOR	PACE UNIV, PO BOX 3020, 235 ELM RD, BRIARCLIFF MANOR, NY 10510-8020	0001-4273			ACAD MANAGE J	Acad. Manage. J.		1975	18	1					82	97		10.2307/255627				16	Business; Management	Business & Economics	V8381	WOS:A1975V838100007	1235928				2019-01-18	
J	EVANS, MG				EVANS, MG			OPPORTUNISTIC ORGANIZATIONAL RESEARCH - ROLE OF PATCH-UP DESIGNS	ACADEMY OF MANAGEMENT JOURNAL			English	Article									UNIV TORONTO,FAC MANAGEMENT STUDIES,TORONTO,ONTARIO,CANADA							BROWN LD, 1972, J APPL BEHAV SCI, V8, P697, DOI 10.1177/002188637200800606; CAMPBELL DT, 1969, AM PSYCHOL, V24, P409, DOI 10.1037/h0027982; CAMPBELL DT, 1966, EXPTL QUASI EXPTL DE; Coch L, 1948, HUM RELAT, V1, P512, DOI 10.1177/001872674800100408; EVANS MG, FLEXTIME ITS IMPACT; GOLEMBIEWSKI RT, 1971, ACAD MANAGE J, V14, P465, DOI 10.2307/255061; MAXWELL SR, 1973, J BUSINESS ADMINISTR, V5, P21; MAXWELL SR, 1973, MANAGEMENT DEVELOPME; MCGUIRE WJ, 1964, ADV EXPTL SOCIAL PSY; Rosenthal R, 1966, EXPERIMENTER EFFECTS; VAUGHT RS, 1974, PSYCHOL BULL, V81, P126, DOI 10.1037/h0037612	11	14	14	0	3	ACAD MANAGEMENT	BRIARCLIFF MANOR	PACE UNIV, PO BOX 3020, 235 ELM RD, BRIARCLIFF MANOR, NY 10510-8020	0001-4273			ACAD MANAGE J	Acad. Manage. J.		1975	18	1					98	108		10.2307/255628				11	Business; Management	Business & Economics	V8381	WOS:A1975V838100008					2019-01-18	
J	MOBERG, DJ; KOCH, JL				MOBERG, DJ; KOCH, JL			CRITICAL APPRAISAL OF INTEGRATED TREATMENTS OF CONTINGENCY FINDINGS	ACADEMY OF MANAGEMENT JOURNAL			English	Article									UNIV OREGON,EUGENE,OR 97403							BLANDIN JS, 1974, 34 ANN M AC MAN; Carlisle H.M., 1973, SITUATIONAL MANAGEME; DILL WR, 1958, ADMIN SCI QUART, V2, P409, DOI 10.2307/2390794; DUBIN R, 1969, THEORY BUILDING; DUNCAN RB, 1972, ADMIN SCI QUART, V17, P313, DOI 10.2307/2392145; Fiedler F. E., 1967, THEORY LEADERSHIP EF; FILLEY AC, 1969, MANAGERIAL PROCESS O; FOREHAND GA, 1964, PSYCHOL BULL, V62, P361, DOI 10.1037/h0045960; Hellriegel D, 1973, BUS HORIZONS, Vxvi, P59; HELLRIEGEL D, 1973, MANAGEMENT CONTINGEN; HICKSON DJ, 1969, ADMIN SCI QUART, V14, P378, DOI 10.2307/2391134; HOEFLING JA, 1970, ARMY, V20, P31; KAST FE, 1972, ACAD MANAGE J, V15, P447, DOI 10.2307/255141; KAST FE, 1973, CONTINGENCY VIEWS OR; KAST FE, 1973, ORGANIZATION MANAGEM; KEFALAS AG, 1973, DECISION SCIENCES, V14, P63; KERR S, 1974, CONTINGENCY THEORIES; KOCH JL, 1974, CRITICAL ASSESSMENT; KORMAN AK, 1973, J APPL PSYCHOL, V58, P384, DOI 10.1037/h0036306; KORMAN AK, 1972, 32 P ANN M AC MAN, P170; LAWRENCE PR, 1969, ORGANIZATION ENVIRON; Likert R., 1961, NEW PATTERNS MANAGEM; LOMBARD GFF, 1971, HARVARD BUS REV, V49, P55; Luthans F., 1973, BUS HORIZONS, V16, P67; MAGNUSEN K, 1973, ORGANIZATIONAL DYNAM, V2, P16; Maslow AH, 1943, PSYCHOL REV, V50, P370, DOI 10.1037/h0054346; MOCKLER RJ, 1971, HARVARD BUS REV, V49, P146; PUGH DS, 1966, PSYCHOLOGICAL B, V66, P230; Reddin W., 1970, MANAGERIAL EFFECTIVE; SCOTT WG, 1972, ORGANIZATION THEORY; SHERMAN H, 1966, IT ALL DEPENDS; SHETTY YK, 1972, CALIF MANAGE REV, V15, P38, DOI 10.2307/41164398; SOMMERHOFF G, 1969, SYSTEMS THINKING SEL, P147; THOMPSON JD, 1967, ORGANIZATIONS ACTION; TOSI H, 1973, ADMIN SCI QUART, V18, P27, DOI 10.2307/2391925; TOSI HL, 1974, ORGANIZATIONAL BEHAV; VICKERS G, 1965, ART JUDGEMENT; WOODWARD J, 1965, INDUSTRIAL ORGANIZAT; ZALEZNIK A, 1951, FOREMAN TRAINING GRO	39	12	12	0	5	ACAD MANAGEMENT	BRIARCLIFF MANOR	PACE UNIV, PO BOX 3020, 235 ELM RD, BRIARCLIFF MANOR, NY 10510-8020	0001-4273			ACAD MANAGE J	Acad. Manage. J.		1975	18	1					109	124		10.2307/255629				16	Business; Management	Business & Economics	V8381	WOS:A1975V838100009					2019-01-18	
J	DERMER, J				DERMER, J			INTERRELATIONSHIP OF INTRINSIC AND EXTRINSIC MOTIVATION	ACADEMY OF MANAGEMENT JOURNAL			English	Article									MIT,CAMBRIDGE,MA 02139							DECI EL, 1972, ORGAN BEHAV HUM PERF, V8, P217, DOI 10.1016/0030-5073(72)90047-5; DECI EL, 1971, J PERS SOC PSYCHOL, V18, P105, DOI 10.1037/h0030644; GALBRAITH J, 1967, ORGAN BEHAV HUM PERF, V2, P237, DOI 10.1016/0030-5073(67)90020-7; GAVIN JF, 1970, APA EXPTL PUBLICATIO, V5; GRAEN G, 1969, J APPLIED PSYCHOLOGY, V53; HACKMAN JR, 1968, ORGAN BEHAV HUM PERF, V3, P417, DOI 10.1016/0030-5073(68)90018-4; Herzberg F, 1959, MOTIVATION WORK; Hofstede G.H., 1968, GAME BUDGET CONTROL; LAWLER EE, 1970, J APPL PSYCHOL, V54, P305, DOI 10.1037/h0029692; LAWLER EE, 1968, J APPL PSYCHOL, V52, P462, DOI 10.1037/h0026499; MUELLER JH, 1961, STATISTICAL REASONIN; PORTER L, 1967, MANAGEMENT ATTITUDES; SCHUSTER JR, 1971, J APPL PSYCHOL, V55, P187, DOI 10.1037/h0031156; SPITZER ME, 1964, GOAL ATTAINMENT JOB; VROOM VH, 1964, WORK MOTIVATION	15	25	26	2	22	ACAD MANAGEMENT	BRIARCLIFF MANOR	PACE UNIV, PO BOX 3020, 235 ELM RD, BRIARCLIFF MANOR, NY 10510-8020	0001-4273			ACAD MANAGE J	Acad. Manage. J.		1975	18	1					125	129		10.2307/255630				5	Business; Management	Business & Economics	V8381	WOS:A1975V838100010					2019-01-18	
J	FULLER, JA				FULLER, JA			LINEAR PROGRAMMING APPROACH TO AGGREGATE SCHEDULING	ACADEMY OF MANAGEMENT JOURNAL			English	Article									UNIV OKLAHOMA,NORMAN,OK 73069							BOWMAN EH, 1963, MANAGE SCI, V9, P310, DOI 10.1287/mnsc.9.2.310; BROWN GF, 1971, MANAGEMENT SCIENCE, V18, P226; FLORIAN M, 1971, MANAGE SCI, V18, P12, DOI 10.1287/mnsc.18.1.12; GAL T, 1972, MANAGE SCI, V18, P406, DOI 10.1287/mnsc.18.7.406; HANNSMAN F, 1960, MANAGEMENT TECHNOLOG, V1, P46; HAUSMAN WH, 1972, MANAGE SCI, V18, P370, DOI 10.1287/mnsc.18.7.370; HOLT C, 1955, MANAGE SCI, V2, P1, DOI DOI 10.1287/MNSC.2.1.1; HOLT CC, 1956, MANAGE SCI, V2, P159, DOI 10.1287/mnsc.2.2.159; JONES CH, 1967, MANAGE SCI, V13, P843; Kochenberger G. A., 1971, DECISION SCI, V2, P193; KUNREUTHER HC, 1973, MANAGE SCI, V20, P110, DOI 10.1287/mnsc.20.1.110; MUHITTAN O, 1972, MANAGEMENT SCIENCE, V18, pB344; TAUBERT WH, 1968, MANAGE SCI, V14, pB343; TRUEMAN R, 1971, DECISION SCIENCES, V2, P341; WALKER D, 1971, DECISION SCIENCES, V2, P448	15	1	1	0	3	ACAD MANAGEMENT	BRIARCLIFF MANOR	PACE UNIV, PO BOX 3020, 235 ELM RD, BRIARCLIFF MANOR, NY 10510-8020	0001-4273			ACAD MANAGE J	Acad. Manage. J.		1975	18	1					129	136		10.2307/255631				8	Business; Management	Business & Economics	V8381	WOS:A1975V838100011					2019-01-18	
J	YOUSSEF, SM				YOUSSEF, SM			CONTEXTUAL FACTORS INFLUENCING CONTROL STRATEGY OF MULTINATIONAL CORPORATIONS	ACADEMY OF MANAGEMENT JOURNAL			English	Article									WESTERN ILLINOIS UNIV,MACOMB,IL 61455							ANGEL J, 1969, DIRECTORY AM FIRMS O; BEHRMAN JN, 1970, NATIONAL INTERESTS M; Chandler Jr A. D., 1962, STRATEGY STRUCTURE C; Fayerweather J., 1969, INT BUSINESS MANAGEM; FOURAKER L, 1968, ADMINISTRATIVE SCIEN, V13, P54; PUGH DS, 1969, ADMIN SCI QUART, V14, P91, DOI 10.2307/2391366; SCHOLLHAMMER H, 1971, ACAD MANAGE J, V14, P345, DOI 10.2307/255079; WOODWARD J, 1965, INDUSTRIAL ORGANIZAT; YOUSSEF SI, IN PRESS; YOUSSEF SM, 1973, ACAD MANAGE J, V16, P24, DOI 10.2307/255039; 1971, UN YB NATIONAL ACCOU, V3	11	14	14	0	2	ACAD MANAGEMENT	BRIARCLIFF MANOR	PACE UNIV, PO BOX 3020, 235 ELM RD, BRIARCLIFF MANOR, NY 10510-8020	0001-4273			ACAD MANAGE J	Acad. Manage. J.		1975	18	1					136	143		10.2307/255632				8	Business; Management	Business & Economics	V8381	WOS:A1975V838100012					2019-01-18	
J	KILMANN, RH				KILMANN, RH			DESIGNING AND DEVELOPING A REAL ORGANIZATION IN CLASSROOM	ACADEMY OF MANAGEMENT JOURNAL			English	Article									UNIV PITTSBURGH,PITTSBURGH,PA 15213							Argyris C., 1964, INTEGRATING INDIVIDU; Beckhard R., 1972, J CONTEMP BUS, V1, P23; BLAKE RR, 1965, J APPL BEHAV SCI, V1, P25, DOI 10.1177/002188636500100104; BRADFORD LP, 1964, T GROUP THEORY LABOR; CARTWRIGHT D, 1957, J GROUP PSYCHOTHERAP, V7, P86; FRENCH W, 1969, CALIF MANAGE REV, V12, P23, DOI 10.2307/41164216; KILMANN RH, 1974, J APPL PSYCHOL, V59, P337, DOI 10.1037/h0036747; KILMANN RH, 1974, PERSONNEL, V51, P35; KILMANN RH, 1973, EASTERN ACADEMY MANA; KILMANN RH, 1974, HUMAN RELATIONS, V27; KILMANN RH, IN PRESS; KOLB DA, 1971, ORGANIZATIONAL PSYCH; LAWRENCE PR, 1967, ADMIN SCI QUART, V12, P1, DOI 10.2307/2391211; LEAVITT HJ, 1972, MANAGERIAL PSYCHOLOG; LESIEUR FG, 1959, SCANLON PLAN; Likert R., 1961, NEW PATTERNS MANAGEM; MCKELVEY B, 1973, ACADEMY MANAGEMENT P, P489; MCKELVEY BC, IN PRESS	18	2	2	0	1	ACAD MANAGEMENT	BRIARCLIFF MANOR	PACE UNIV, PO BOX 3020, 235 ELM RD, BRIARCLIFF MANOR, NY 10510-8020	0001-4273			ACAD MANAGE J	Acad. Manage. J.		1975	18	1					143	148		10.2307/255633				6	Business; Management	Business & Economics	V8381	WOS:A1975V838100013					2019-01-18	
J	DOWNEY, HK; HELLRIEGEL, D; SLOCUM, JW				DOWNEY, HK; HELLRIEGEL, D; SLOCUM, JW			CONGRUENCE BETWEEN INDIVIDUAL NEEDS, ORGANIZATIONAL CLIMATE, JOB SATISFACTION AND PERFORMANCE	ACADEMY OF MANAGEMENT JOURNAL			English	Article									UNIV KENTUCKY,LEXINGTON,KY 40506; PENN STATE UNIV,UNIVERSITY PK,PA							ANDREWS JDW, 1967, J PERS SOC PSYCHOL, V6, P163, DOI 10.1037/h0024689; ARGYRIS C, 1973, ADMIN SCI QUART, V18, P141, DOI 10.2307/2392060; Bernreuter RG, 1933, J SOC PSYCHOL, V4, P387, DOI 10.1080/00224545.1933.9919335; CAMPBELL JP, 1970, MANAGERIAL BEHAVIOR; CAWSEY T, 1973, 16 ANN MIDW AC MAN C; DOWNEY KH, 1974, J BUS RES, V2, P233; EVAN WM, 1963, MANAGE SCI, V9, P468, DOI 10.1287/mnsc.9.3.468; FLANAGAN JC, 1935, FACTOR ANALYSIS STUD; FOREHAND GA, 1968, ORG CLIMATE, P65; FREDERICKSON N, 1966, RM6621 ED TEST SERV; FRIEDLANDER F, 1969, PERS PSYCHOL, V22, P171, DOI 10.1111/j.1744-6570.1969.tb02300.x; GERSON M, 1974, NEW METHODOLOGICAL A; HELLRIEGEL D, 1974, ACAD MANAGE J, V17, P255, DOI 10.2307/254979; KATZ D, 1966, SOCIAL PSYCHOLOGY; LICHTMAN CM, 1971, PSYCHOL BULL, V76, P271, DOI 10.1037/h0031636; LIRTZMAN S, 1973, 33 ANN C AC MAN; LITWIN GH, 1968, MOTIVATION ORGANIZAT; PERVIN LA, 1968, PSYCHOL BULL, V69, P56, DOI 10.1037/h0025271; PRITCHARD R, 1973, ORGANIZATIONAL BEHAV, V9, P110; PUGH DS, 1969, ADMIN SCI QUART, V14, P91, DOI 10.2307/2391366; SCHEFFE H, 1959, ANALYSIS VARIANCE; SCHNEIDER B, 1972, J APPL PSYCHOL, V56, P211, DOI 10.1037/h0033103; Schneider B., 1970, PERS PSYCHOL, V23, P493; SELLS SB, 1963, AM PSYCHOL, V18, P696, DOI 10.1037/h0042730; Smith P. C., 1969, MEASUREMENT SATISFAC	25	52	54	1	8	ACAD MANAGEMENT	BRIARCLIFF MANOR	PACE UNIV, PO BOX 3020, 235 ELM RD, BRIARCLIFF MANOR, NY 10510-8020	0001-4273			ACAD MANAGE J	Acad. Manage. J.		1975	18	1					149	155		10.2307/255634				7	Business; Management	Business & Economics	V8381	WOS:A1975V838100014					2019-01-18	
J	FOGLER, HR; NUTT, F				FOGLER, HR; NUTT, F			NOTE ON SOCIAL RESPONSIBILITY AND STOCK VALUATION	ACADEMY OF MANAGEMENT JOURNAL			English	Article									UNIV FLORIDA,GAINESVILLE,FL 32601							BOWER DH, 1970, J FINANC, V25, P483, DOI 10.2307/2325496; BRAGDON JH, 1971, ANNUAL M FINANCIAL M; BREIT W, 1972, J ECON ISSUES, V6, P143, DOI 10.1080/00213624.1972.11503017; DAY J, 1971, EXCHANGE         NOV, P13; FRIEND I, 1964, AM ECON REV, V54, P656; MALKIEL BG, 1971, HARVARD BUS REV, V49, P37; MONSEN RJ, 1972, J ECON ISSUES, V6, P125, DOI 10.1080/00213624.1972.11503016; MURAD A, 1971, J ECON ISSUES, V5, P42, DOI 10.1080/00213624.1971.11502961; NARVER JC, 1971, J ACADEMY MANAGEMENT, V14, P99; RYANS JK, 1972, 4 ANN C AM I DEC SCI; WOLOZIN H, 1971, J ECON ISSUES, V5, P26, DOI 10.1080/00213624.1971.11502960; 1972, BUSINESS WEEK   0923, P88; 1971, BUSINESS WEEK   1204, P71; 1972, PARTICIPANT      JUN, P3; 1971, BUSINESS WEEK   0807, P25; 1971, ECONOMIC PRIORITIES, V1, P13	16	59	60	1	8	ACAD MANAGEMENT	BRIARCLIFF MANOR	PACE UNIV, PO BOX 3020, 235 ELM RD, BRIARCLIFF MANOR, NY 10510-8020	0001-4273			ACAD MANAGE J	Acad. Manage. J.		1975	18	1					155	160		10.2307/255635				6	Business; Management	Business & Economics	V8381	WOS:A1975V838100015					2019-01-18	
J	JUSTIS, RT				JUSTIS, RT			LEADERSHIP EFFECTIVENESS - CONTINGENCY APPROACH	ACADEMY OF MANAGEMENT JOURNAL			English	Article									TEXAS TECH UNIV, LUBBOCK, TX 79409 USA							Bandura A., 1963, SOCIAL LEARNING PERS; BARON RA, 1970, J PERS SOC PSYCHOL, V14, P345, DOI 10.1037/h0028994; CHALMERS DK, 1963, J ABNORM PSYCHOL, V66, P556, DOI 10.1037/h0042878; FIEDLER FE, 1971, PSYCHOL BULL, V76, P128, DOI 10.1037/h0031454; GERWIRTZ JL, 1956, CHILD DEV, V27, P17; GERWIRTZ JL, 1961, DETERMINANTS INFANT, P213; GERWIRTZ JL, 1969, HDB SOCIALIZATION TH, pCH2; MISCHEL W, 1967, CHILD DEV, V38, P673, DOI 10.2307/1127245; ROSENBAUM ME, 1962, J EXP PSYCHOL, V63, P183, DOI 10.1037/h0042363; Sears R. R., 1965, IDENTIFICATION CHILD; THIBAUT JW, 1959, SOCIAL PSYCHOLOGY GR	11	5	5	3	10	ACAD MANAGEMENT	BRIARCLIFF MANOR	PACE UNIV, PO BOX 3020, 235 ELM RD, BRIARCLIFF MANOR, NY 10510-8020 USA	0001-4273	1948-0989		ACAD MANAGE J	Acad. Manage. J.		1975	18	1					160	167		10.2307/255636				8	Business; Management	Business & Economics	V8381	WOS:A1975V838100016					2019-01-18	
J	WEAVER, CN				WEAVER, CN			JOB PREFERENCES OF WHITE COLLAR AND BLUE COLLAR WORKERS	ACADEMY OF MANAGEMENT JOURNAL			English	Article									ST MARYS UNIV,SAN ANTONIO,TX 78228							CENTERS R, 1966, J APPL PSYCHOL, V50, P193, DOI 10.1037/h0023420; Centers R, 1948, J SOC PSYCHOL, V28, P187, DOI 10.1080/00224545.1948.9921768; GLENN ND, 1970, PUBLIC OPIN QUART, V34, P82; Howe Irving, 1972, WORLD BLUE COLLAR WO; Jurgensen CE, 1947, J APPL PSYCHOL, V31, P553, DOI 10.1037/h0054971; LEVITAN S, 1971, BLUE COLLAR WORKERS; LOCKE EA, 1973, J APPL PSYCHOL, V58, P67, DOI 10.1037/h0035418; Lyman EL, 1955, AM J SOCIOL, V61, P138, DOI 10.1086/221695; SALEH SD, 1973, J APPL PSYCHOL, V58, P131, DOI 10.1037/h0035421; Shostak Arthur B., 1969, BLUE COLLAR LIFE; SIEGEL PB, IN PRESS; STEPHAN FF, 1958, SAMPLING OPINION; SUPER DE, 1938, J APPLIED PSYCHOLOGY, V23, P547; WERNIMONT PF, 1966, J APPL PSYCHOL, V50, P41, DOI 10.1037/h0022938	14	13	13	0	3	ACAD MANAGEMENT	BRIARCLIFF MANOR	PACE UNIV, PO BOX 3020, 235 ELM RD, BRIARCLIFF MANOR, NY 10510-8020	0001-4273			ACAD MANAGE J	Acad. Manage. J.		1975	18	1					167	175		10.2307/255637				9	Business; Management	Business & Economics	V8381	WOS:A1975V838100017					2019-01-18	
J	LEISTER, DV; MACLACHLAN, DL				LEISTER, DV; MACLACHLAN, DL			ORGANIZATIONAL SELF-PERCEPTION AND ENVIRONMENTAL IMAGE MEASUREMENT	ACADEMY OF MANAGEMENT JOURNAL			English	Article									DEPT TRANSPORTATION,SEARS ROEBUCK FDN,WASHINGTON,DC 20590; UNIV WASHINGTON,SEATTLE,WA 98105; PACIFIC LUTHERAN UNIV,CTR HUMAN ORG CHANGING ENVIRONM,TACOMA,WA 98447							BROWNE PJ, 1974, ACAD MANAGE J, V17, P406, DOI 10.2307/254645; CAMPBELL DT, 1950, PSYCHOL BULL, V47, P15, DOI 10.1037/h0054114; Caves R. E., 1972, AM INDUSTRY STRUCTUR; DAVIS RR, 1971, PERCEPTION PREFERENC; ETZIONI Amitai, 1969, SOCIOLOGICAL READER, P59; FISHBEIN M, 1963, HUM RELAT, V16, P233, DOI 10.1177/001872676301600302; FISHBEIN M, 1967, READINGS ATTITUDES T; GOULDNER AW, 1958, ADMIN SCI QUART, V2, P444, DOI 10.2307/2390795; GOULDNER AW, 1957, ADMIN SCI QUART, V2, P281, DOI 10.2307/2391000; GREEN PE, 1972, APPLIED MULTIDIMENSI; GREEN PE, 1970, MULTIDIMENSIONAL SCA; HERZOG H, 1958, P MARKETING TEACHERS; Krech D, 1948, THEORY PROBLEMS SOCI; KRUSKAL JB, 1964, PSYCHOMETRIKA, V29, P1, DOI 10.1007/BF02289565; LITWIN GH, 1968, MOTIVATION ORGANIZAT; MARCH JG, 1965, HDB ORGANIZATIONS; MARTINEAU P, 1957, MOTIVATION ADVERTISI; MEYERS JG, 1968, CONSUMER IMAGE ATTIT; Osgood C.E., 1957, MEASUREMENT MEANING; PEABODY RL, 1962, ADMIN SCI QUART, V6, P463, DOI 10.2307/2390726; ROSENBERG M, 1956, J ABNORMAL SOCIAL PS, V53; SCOTT WG, 1967, ORGANIZATION THEORY; SHEPARD RN, 1962, PSYCHOMETRIKA, V27, P125, DOI 10.1007/BF02289630; SHEPARD RN, 1962, PSYCHOMETRIKA, V27, P219, DOI 10.1007/BF02289621; SHEPARD RN, 1972, MULTIDIMENSIONAL SCA, V2; Shepard Roger N, 1972, MULTIDIMENSIONAL SCA, Vi; THOMPSON JD, 1967, ORGANIZATIONS ACTION; WILKIE WL, 1973, J MARKETING RES, V10, P428, DOI 10.2307/3149391; YOUNG FW, 1967, BEHAV SCI, V12, P498; ZALKIND SS, 1962, ADMIN SCI QUART, V7, P218, DOI 10.2307/2390856	30	5	5	0	4	ACAD MANAGEMENT	BRIARCLIFF MANOR	PACE UNIV, PO BOX 3020, 235 ELM RD, BRIARCLIFF MANOR, NY 10510-8020	0001-4273			ACAD MANAGE J	Acad. Manage. J.		1975	18	2					205	223		10.2307/255525				19	Business; Management	Business & Economics	AE039	WOS:A1975AE03900001					2019-01-18	
J	REIMAN, BC				REIMAN, BC			ORGANIZATIONAL-EFFECTIVENESS AND MANAGEMENTS PUBLIC VALUES - CANONICAL ANALYSIS	ACADEMY OF MANAGEMENT JOURNAL			English	Article									UNIV PENN,WHARTON SCH,PHILADELPHIA,PA 19104							ALPERT MI, 1972, J MARKETING RES, V9, P187, DOI 10.2307/3149953; BARNARD C., 1938, FUNCTIONS EXECUTIVE; BASS AJ, 1972, STATISTICAL ANALYSIS; *BUR NAT AFF, 1973, 511 LAB REL REP, P963; Burns T, 1961, MANAGEMENT INNOVATIO; Chandler Jr A. D., 1962, STRATEGY STRUCTURE C; CHILD J, 1972, SOCIOLOGY, V6, P1, DOI 10.1177/003803857200600101; Comrey AL, 1952, PERS PSYCHOL, V5, P307, DOI 10.1111/j.1744-6570.1952.tb01021.x; COOLEY WW, 1971, MULTIVARIATE PROCEDU; ENGLAND GW, 1967, ACAD MANAGE J, V10, P53, DOI 10.2307/255244; ETZIONI A, 1964, MODERN ORGANIZATIONS; FRIEDLANDER F, 1968, ADMIN SCI QUART, V13, P289, DOI 10.2307/2391456; GEORGIOU P, 1973, ADMIN SCI QUART, V18, P291, DOI 10.2307/2391665; GEORGOPOULOS BS, 1957, AM SOCIOL REV, V22, P534, DOI 10.2307/2089477; GUTH WD, 1965, HARVARD BUS REV, V43, P123; HAGE J, 1973, ADMIN SCI QUART, V18, P279, DOI 10.2307/2391664; Hall R. H., 1972, ORGANIZATIONS STRUCT; INKSON JHK, 1970, ADMIN SCI QUART, V15, P318, DOI 10.2307/2391622; LIKERT R, 1967, HUMAN ORGANIZATION I; NEGANDHI A, 1971, COMPARATIVE MANAGEME; Osgood C.E., 1957, MEASUREMENT MEANING; PERROW C, 1961, AM SOCIOL REV, V26, P854, DOI 10.2307/2090570; PFEFFER J, 1973, ADMIN SCI QUART, V18, P449, DOI 10.2307/2392198; PRICE JL, 1968, ORGANIZATIONAL EFFEC; PUGH DS, 1969, ADMIN SCI QUART, V14, P91, DOI 10.2307/2391366; REIMANN BC, 1974, ACAD MANAGE J, V17, P418, DOI 10.2307/254646; REIMANN BC, 1973, ADMIN SCI QUART, V18, P462, DOI 10.2307/2392199; REIMANN BC, 1971, Q J MANAGEMENT DEV, V2, P25; SEASHORE SE, 1967, ADMIN SCI QUART, V12, P377, DOI 10.2307/2391311; Steiner G. A., 1971, BUSINESS SOC; TATHAM R, 1973, DECISION SCI, V4, P343; WOODWARD J, 1965, INDUSTRIAL ORGANIZAT; YUCHTMAN E, 1967, AM SOCIOL REV, V32, P891, DOI 10.2307/2092843; 1972, STANDARD POORS REGIS	34	33	33	0	7	ACAD MANAGEMENT	BRIARCLIFF MANOR	PACE UNIV, PO BOX 3020, 235 ELM RD, BRIARCLIFF MANOR, NY 10510-8020	0001-4273			ACAD MANAGE J	Acad. Manage. J.		1975	18	2					224	241		10.2307/255526				18	Business; Management	Business & Economics	AE039	WOS:A1975AE03900002					2019-01-18	
J	STINSON, JE; JOHNSON, TW				STINSON, JE; JOHNSON, TW			PATH-GOAL THEORY OF LEADERSHIP - PARTIAL TEST AND SUGGESTED REFINEMENT	ACADEMY OF MANAGEMENT JOURNAL			English	Article									OHIO UNIV,CTR LEADERSHIP STUDIES,ATHENS,OH 45701							Brayfield AH, 1951, J APPL PSYCHOL, V35, P307, DOI 10.1037/h0055617; HACKMAN JR, 1971, J APPL PSYCHOL, V55, P259, DOI 10.1037/h0031152; HALPIN AW, 1957, MANUAL LEADER BEHAVI; HERSEY P, 1969, TRAINING DEVELOPMENT, V24, P3; House R. H., 1974, CONTINGENCY APPROACH, P29; HOUSE RJ, 1971, ADMIN SCI QUART, V16, P321, DOI 10.2307/2391905; JOHNSON TR, IN PRESS; JOHNSON TW, 1973, ORGAN BEHAV HUM PERF, V10, P72, DOI 10.1016/0030-5073(73)90005-6; Kahn R. L., 1964, ORGANIZATIONAL STRES; RIZZO JR, 1970, ADMIN SCI QUART, V15, P150, DOI 10.2307/2391486; STINSON JE, 1973, 15 OH U WORK PAP; STINSON JE, 1973, 16 OH U WORK PAP; TURNER AN, 1965, INDUSTRIAL JOBS WORK; VROOM VH, 1960, SOME PERSONALITY DET	14	33	33	2	9	ACAD MANAGEMENT	BRIARCLIFF MANOR	PACE UNIV, PO BOX 3020, 235 ELM RD, BRIARCLIFF MANOR, NY 10510-8020	0001-4273			ACAD MANAGE J	Acad. Manage. J.		1975	18	2					242	252		10.2307/255527				11	Business; Management	Business & Economics	AE039	WOS:A1975AE03900003					2019-01-18	
J	DOWNEY, HK; SHERIDAN, JE; SLOCUM, JW				DOWNEY, HK; SHERIDAN, JE; SLOCUM, JW			ANALYSIS OF RELATIONSHIPS AMONG LEADER-BEHAVIOR, SUBORDINATE JOB-PERFORMANCE AND SATISFACTION - PATH-GOAL APPROACH	ACADEMY OF MANAGEMENT JOURNAL			English	Article									OKLAHOMA STATE UNIV,STILLWATER,OK 74074; WAYNE STATE UNIV,DETROIT,MI 48202; PENN STATE UNIV,UNIVERSITY PK,PA 16802							Atkinson John W., 1958, MOTIVES FANTASY ACTI, P288; DESSLER G, 1973, THESIS CITY U NEW YO; DESSLER G, 1972, 31ST AC MAN P ANN M, P178; DOWNEY KH, 1974, J BUS RES, V2, P233; EVANS MG, 1969, J APPL PSYCHOL, V53, P102, DOI 10.1037/h0027098; EVANS MG, 1968, THESIS YALE U; FLEISHMAN EA, 1962, PERS PSYCHOL, V15, P127, DOI 10.1111/j.1744-6570.1962.tb01855.x; GEORGOPOULOS BS, 1957, J APPL PSYCHOL, V41, P345, DOI 10.1037/h0048473; GREENE C, 1973, 33RD ANN M AC MAN P, P433; House R. H., 1974, CONTINGENCY APPROACH, P29; HOUSE RJ, 1971, ADMIN SCI QUART, V16, P321, DOI 10.2307/2391905; IMPARATO N, 1972, J APPL PSYCHOL, V56, P397, DOI 10.1037/h0033445; KERR S, 1974, ORGAN BEHAV HUM PERF, V12, P62, DOI 10.1016/0030-5073(74)90037-3; ROTTER JB, 1955, NEBRASKA S MOTIVATIO, P245; SCHRIESHEIM C, 1974, PSYCHOL BULL, V81, P756, DOI 10.1037/h0037277; SCHRIESHEIM C, UNPUBLISHED PAPER; SCHULER R, UNPUBLISHED PAPER; SHERIDAN JE, 1975, J APPL PSYCHOL, V60, P119, DOI 10.1037/h0076356; SHERIDAN JE, 1974, DECISION SCI, V5, P507; Smith P. C., 1969, MEASUREMENT SATISFAC; STINSON JE, 1975, ACAD MANAGE J, V18, P242, DOI 10.2307/255527; SZILAGYI S, 1974, ACADEMY MANAGEMENT J, V17, P622; VROOM VH, 1966, ORGAN BEHAV HUM PERF, V1, P212, DOI 10.1016/0030-5073(66)90013-4; VROOM VH, 1964, WORK MOTIVATION	24	28	28	0	9	ACAD MANAGEMENT	BRIARCLIFF MANOR	PACE UNIV, PO BOX 3020, 235 ELM RD, BRIARCLIFF MANOR, NY 10510-8020	0001-4273			ACAD MANAGE J	Acad. Manage. J.		1975	18	2					253	262		10.2307/255528				10	Business; Management	Business & Economics	AE039	WOS:A1975AE03900004					2019-01-18	
J	SHEARER, RL; STEGER, JA				SHEARER, RL; STEGER, JA			MANPOWER OBSOLESCENCE - NEW DEFINITION AND EMPIRICAL-INVESTIGATION OF PERSONAL VARIABLES	ACADEMY OF MANAGEMENT JOURNAL			English	Article									USAF,SPACE & MISSILE SYST ORG,LOS ANGELES AIR FORCE STN,LOS ANGELES,CA 90053; RENSSELAER POLYTECH INST,EARLY IDENTIFICATION MANAGEMENT RES UNIT,TROY,NY 12181							ANSHEN M, 1960, MANAGEMENT REV, V49, P40; BUFFA ES, 1969, MODERN PRODUCTION MA; BURACK EH, 1970, MSU BUS TOPICS-MICH, V18, P49; DALTON GW, 1971, HARVARD BUS REV, V49, P57; EVAN WM, 1963, IEEE T ENG MANAGE, V10, P29; FERDINAND TN, 1966, AM SCI, V54, P46; Gardner JW, 1963, SELF RENEWAL; HAAS FC, 1968, EXECUTIVE OBSOLESCEN; HULL JW, 1964, M TODAYS RESPONSIBIL; LIKERT R, 1959, HARVARD BUS REV, V37, P75; MILLER I, 1965, PROBABILITY STATISTI; MILLER JA, 1972, 47 U ROCH MAN RES CT; *NAT SCIENC F, 1969, CONT ED RD CAR; Reddin W., 1970, MANAGERIAL EFFECTIVE; ROTTER JB, 1966, PSYCHOLOGICAL MONOGR, V80; SCHEIN EH, 1968, IMR-IND MANAG REV, V9, P1; SEIFERT WW, 1964, RES MANAGE, V7, P143; VROOM VH, 1960, SOME PERSONALITY DET	18	20	20	0	1	ACAD MANAGEMENT	BRIARCLIFF MANOR	PACE UNIV, PO BOX 3020, 235 ELM RD, BRIARCLIFF MANOR, NY 10510-8020	0001-4273			ACAD MANAGE J	Acad. Manage. J.		1975	18	2					263	275		10.2307/255529				13	Business; Management	Business & Economics	AE039	WOS:A1975AE03900005					2019-01-18	
J	PETERSON, RB				PETERSON, RB			INTERACTION OF TECHNOLOGICAL PROCESS AND PERCEIVED ORGANIZATIONAL CLIMATE IN NORWEGIAN FIRMS	ACADEMY OF MANAGEMENT JOURNAL			English	Article									UNIV WASHINGTON,SEATTLE,WA 98105							Blauner R., 1964, ALIENATION FREEDOM; Burns T, 1961, MANAGEMENT INNOVATIO; BUTTERFIELD DA, 1974, J APPL PSYCHOL, V59, P15, DOI 10.1037/h0035835; CROMPTON R, 1972, WORKERS ATTITUDES TE; FORM WH, 1972, AM SOCIOL REV, V37, P727; FULLAN M, 1970, AM SOCIOL REV, V35, P1028, DOI 10.2307/2093380; GELLERMAN SW, 1968, MANAGEMENT MOTIVATIO; GUION R, 1973, ORGANIZATIONAL BEHAV, V10, P120; HAGE J, 1969, ADMIN SCI QUART, V14, P366, DOI 10.2307/2391132; HARVEY E, 1968, AM SOCIOL REV, V33, P247, DOI 10.2307/2092391; HELLRIEGEL D, 1974, ACAD MANAGE J, V17, P255, DOI 10.2307/254979; Herzberg F, 1959, MOTIVATION WORK; HICKSON DJ, 1969, ADMIN SCI QUART, V14, P378, DOI 10.2307/2391134; HUNT RG, 1970, ACAD MANAGE J, V13, P235, DOI 10.2307/254962; KELLER RT, 1974, ACAD MANAGE J, V17, P56, DOI 10.2307/254771; LAWRENCE PR, 1969, ORGANIZATION ENVIRON; LIKERT R, 1967, HUMAN ORGANIZATION I; Likert R., 1961, NEW PATTERNS MANAGEM; LITWIN GH, 1968, MOTIVATION ORGANIZAT; MAHONEY TA, 1974, ORGAN BEHAV HUM PERF, V11, P122, DOI 10.1016/0030-5073(74)90009-9; MOHR LB, 1971, ADMIN SCI QUART, V16, P444, DOI 10.2307/2391764; MORSE JJ, 1970, HARVARD BUS REV, V48, P61; MYERS MS, 1966, HARVARD BUS REV, V44, P58; PATTON R, 1969, THESIS U WASHINGTON; PERROW C, 1967, AM SOCIOL REV, V32, P194, DOI 10.2307/2091811; PRITCHARD R, 1973, ORGANIZATIONAL BEHAV, V10, P126; TAGUIRI R, 1968, ORGANIZATIONAL CLIMA; TAYLOR JC, 1972, SURVEY ORGANIZATIONS; THOMPSON JD, 1967, ORGANIZATIONS ACTION; Trist EL, 1951, HUM RELAT, V4, P3, DOI 10.1177/001872675100400101; TURNER AN, 1965, INDUSTRIAL JOBS WORK; VAMPLEW C, 1973, BRIT J IND RELATIONS, V11, P415; WALKER CR, 1968, TECHNOLOGY INDUSTRY; WOLF MG, 1970, J APPL PSYCHOL, V54, P87, DOI 10.1037/h0028664; WOODWARD J, 1965, INDUSTRIAL ORGANIZAT; WOODWARD J, 1970, INDUSTRIAL ORGANIZAT; Woodward Joan, 1958, MANAGEMENT TECHNOLOG	37	13	13	0	1	ACAD MANAGEMENT	BRIARCLIFF MANOR	PACE UNIV, PO BOX 3020, 235 ELM RD, BRIARCLIFF MANOR, NY 10510-8020	0001-4273			ACAD MANAGE J	Acad. Manage. J.		1975	18	2					288	299		10.2307/255531				12	Business; Management	Business & Economics	AE039	WOS:A1975AE03900007					2019-01-18	
J	RUH, RA; WHITE, JK; WOOD, RR				RUH, RA; WHITE, JK; WOOD, RR			JOB INVOLVEMENT, VALUES, PERSONAL BACKGROUND, PARTICIPATION IN DECISION-MAKING, AND JOB ATTITUDES	ACADEMY OF MANAGEMENT JOURNAL			English	Article									MEDINA & THOMPSON INC,CHICAGO,IL 60606; MICHIGAN DEPT LABOR,BUR MANPOWER,LANSING,MI 48924; CORNING GLASS WORKS,CORNING,NY 14830							Argyris C., 1964, INTEGRATING INDIVIDU; BLOOD MR, 1967, J APPL PSYCHOL, V51, P284, DOI 10.1037/h0024683; BLOOD MR, 1968, THESIS U ILLINOIS; DUNNETTE MD, 1968, PERSONNEL SELECTION; FARRIS GF, 1971, PERS PSYCHOL, V24, P311; GOODMAN P, 1969, J APPL PSYCHOL, V53, P240, DOI 10.1037/h0027377; GOODMAN PS, 1970, J APPL PSYCHOL, V54, P491, DOI 10.1037/h0030138; GUILFORD JP, 1965, FUNDAMENTAL STATISTI; Herzberg F., 1966, WORK NATURE MAN; HULIN CL, 1968, PSYCHOL BULL, V69, P41, DOI 10.1037/h0025356; LAWLER EE, 1970, J APPL PSYCHOL, V54, P305, DOI 10.1037/h0029692; LAWLER EE, 1972, MPA CONVENTION; Likert R., 1961, NEW PATTERNS MANAGEM; LODAHL TM, 1965, J APPL PSYCHOL, V49, P24, DOI 10.1037/h0021692; LODAHL TM, 1964, ADMIN SCI QUART, V8, P482, DOI 10.2307/2391429; MAURER JG, 1967, THESIS MICHIGAN STAT; McGregor D, 1960, HUMAN SIDE ENTERPRIS; PATCHEN M, 1965, ADMIN SCI QUART, V10, P149, DOI 10.2307/2391411; Patchen M., 1970, PARTICIPATION ACHIEV; PELTZ DC, 1966, SCIENTISTS ORGANIZAT; ROKEACH M, 1968, BELEIFS ATTITUDES VA; SANDLER BE, 1974, AM PSYCHOL, V29, P767, DOI 10.1037/h0037506; SCHEIN EH, 1971, ORGANIZATIONAL PSYCH; SCHWYHART WR, 1972, J APPL PSYCHOL, V56, P227, DOI 10.1037/h0033104; SIEGEL AL, 1973, ORGAN BEHAV HUM PERF, V9, P318, DOI 10.1016/0030-5073(73)90055-X; TOSI H, 1970, PERS PSYCHOL, V23, P91, DOI 10.1111/j.1744-6570.1970.tb01638.x; TURNER AN, 1965, INDUSTRIAL JOBS WORK; VROOM VH, 1962, PERS PSYCHOL, V15, P159, DOI 10.1111/j.1744-6570.1962.tb01858.x; VROOM VH, 1959, J ABNORM SOC PSYCH, V59, P322, DOI 10.1037/h0049057; VROOM VH, 1960, SOME PERSONALITY DET; WEISSENBERG P, 1968, J APPL PSYCHOL, V52, P469, DOI 10.1037/h0026501	31	52	52	1	6	ACAD MANAGEMENT	BRIARCLIFF MANOR	PACE UNIV, PO BOX 3020, 235 ELM RD, BRIARCLIFF MANOR, NY 10510-8020	0001-4273			ACAD MANAGE J	Acad. Manage. J.		1975	18	2					300	312		10.2307/255532				13	Business; Management	Business & Economics	AE039	WOS:A1975AE03900008					2019-01-18	
J	DIMARCO, N				DIMARCO, N			LIFE-STYLE, WORK GROUP STRUCTURE, COMPATIBILITY, AND JOB-SATISFACTION	ACADEMY OF MANAGEMENT JOURNAL			English	Article									UNIV MISSOURI,ST LOUIS,MO 63121							BASS BM, 1967, PSYCHOL BULL, V68, P260, DOI 10.1037/h0025075; DIMARCO NJ, 1974, ACAD MANAGE J, V17, P575, DOI 10.2307/254661; FINLEY L, 1973, PERS J, V52, P46; FLOWERS VS, 1973, HARVARD BUS REV, V51, P49; FRIEDLANDER F, 1969, PERS PSYCHOL, V22, P171, DOI 10.1111/j.1744-6570.1969.tb02300.x; FRIEDLANDER F, 1971, 31ST P ANN M AC MAN, P153; FRIEDLANDER F, 1971, GENERATIONAL LIFESTY; FRY CL, 1965, J PERS SOC PSYCHOL, V2, P403, DOI 10.1037/h0022282; HAMPTON D, 1968, ORGANIZATIONAL BEHAV; HAYTHORN WW, 1968, ACTA PSYCHOL, V28, P97, DOI 10.1016/0001-6918(68)90008-5; HOFFMAN LR, 1961, J ABNORM SOC PSYCH, V62, P401, DOI 10.1037/h0044025; HOFFMAN R, 1959, J ABNORMAL SOCIAL PS, V58, P27; HUBER NA, 1970, THESIS WAYNE STATE U; HUSE EF, 1970, 78TH P ANN CONV AM P, P587; RYCHLAK JF, 1965, J PERS SOC PSYCHOL, V2, P334, DOI 10.1037/h0022388; SANFORD N, 1950, AUTHORITARIANISM LEA; Schutz W., 1958, FIRO 3 DIMENSIONAL T; SELLS SB, 1963, AM PSYCHOL, V18, P696, DOI 10.1037/h0042730; Shaw M, 1971, GROUP DYNAMICS PSYCH; SMELSER WT, 1961, J ABNORM SOC PSYCH, V62, P535, DOI 10.1037/h0049303; Smith P. C., 1969, MEASUREMENT SATISFAC; TANNENBAUM R, 1956, J ABNORMAL SOCIAL PS, V53, P272; VROOM VH, 1960, SOME PERSONALITY DET; WINCH RF, 1955, J ABNORMAL SOCIAL PS, V55, P508	24	9	9	1	8	ACAD MANAGEMENT	BRIARCLIFF MANOR	PACE UNIV, PO BOX 3020, 235 ELM RD, BRIARCLIFF MANOR, NY 10510-8020	0001-4273			ACAD MANAGE J	Acad. Manage. J.		1975	18	2					313	322		10.2307/255533				10	Business; Management	Business & Economics	AE039	WOS:A1975AE03900009					2019-01-18	
J	HOUSE, RJ				HOUSE, RJ			QUEST FOR RELEVANCE IN MANAGEMENT EDUCATION - SOME 2ND THOUGHTS AND UNDESIRED CONSEQUENCES	ACADEMY OF MANAGEMENT JOURNAL			English	Article									UNIV TORONTO,FAC MANAGEMENT STUDIES,TORONTO,ONTARIO,CANADA							BONNEAU LP, 1972, QUEST OPTIMUM RESEAR; CLARK JJ, 1963, IMPACT FOUNDATION RE; GORDON RA, 1959, HIGHER EDUCATION BUS; MEEHL EP, 1972, AM PSYCHOLOGIST, V27, P932; PIERSON FC, 1959, AM EDUCATION BUSINES; Russell B., 1930, CONQUEST HAPPINESS; Servan-Schreiber Jean-Jacques, 1968, AM CHALLENGE; Toffler A., 1970, FUTURE SHOCK	8	7	7	0	4	ACAD MANAGEMENT	BRIARCLIFF MANOR	PACE UNIV, PO BOX 3020, 235 ELM RD, BRIARCLIFF MANOR, NY 10510-8020	0001-4273			ACAD MANAGE J	Acad. Manage. J.		1975	18	2					323	333		10.2307/255534				11	Business; Management	Business & Economics	AE039	WOS:A1975AE03900010					2019-01-18	
J	NEGANDHI, AR				NEGANDHI, AR			COMPARATIVE MANAGEMENT AND ORGANIZATION THEORY - MARRIAGE NEEDED	ACADEMY OF MANAGEMENT JOURNAL			English	Article									KENT STATE UNIV,GRAD SCH BUSINESS ADM,KENT,OH 44242							AJIFERUKE M, 1970, ACAD MANAGE J, V13, P153, DOI 10.2307/255102; AUCLAIR G, 1968, 76TH ANN CONV AM PSY; BARRETT GV, 1968, 66TH ANN CONV AM PSY; BARRETT GV, 1970, COMP MANAGEMENT TEAC, P179; BARRETT GV, 1969, 16 P INT C APPL PSYC, P413; BODDEWYN J, 1966, MIMIO, P12; Burns T, 1961, MANAGEMENT INNOVATIO; CAPLOW T, 1957, ADMIN SCI QUART, V1, P484, DOI 10.2307/2390870; CROZIER M, 1973, EVIRONMENTAL SETTING, P49; DAVIS SM, 1971, COMPARATIVE MANAGEME; DILL WR, 1958, ADMIN SCI QUART, V2, P409, DOI 10.2307/2390794; EISENSTADT SH, 1964, COMPLEX ORGANIZATION, P276; Emery F, 1969, SYSTEMS THINKING, P281; EMERY FE, 1965, HUM RELAT, V18, P21, DOI 10.1177/001872676501800103; ENGLAND GW, 1970, EXCHANGE SEMINAR COM; ETZIONI A, 1964, MODERN ORGANIZATIONS; EVAN WM, 1966, APPROACHES ORGANIZAT; FARMER RN, 1965, COMPARATIVE MANAGEME; Glasser B., 1965, AWARENESS DYING; HAGE G, 1973, ORGANIZATION THEORY, P17; Haire M., 1966, MANAGERIAL THINKING; HALL RH, 1973, ORGANIZATION THEORY, P45; HARBINSON F, 1959, MANAGEMENT INDUSTRIA; HARVEY E, 1968, AM SOCIOL REV, V33, P247, DOI 10.2307/2092391; HESSELING P, 1969, HUMAN RELATIONS, V20, P31; HICKSON DJ, 1969, ADMIN SCI QUART, V14, P378, DOI 10.2307/2391134; INDIK BP, 1963, HUM RELAT, V16, P369, DOI 10.1177/001872676301600406; KAST FE, 1972, ACADEMY MANAGEMENT J, V15, P463; Koontz H., 1968, PRINCIPLES MANAGEMEN; LAWRENCE PR, 1969, ORGANIZATION ENVIRON; LEFTON M, 1966, AM SOCIOL REV, V31, P802, DOI 10.2307/2091659; LIKERT R, 1967, HUMAN ORGANIZATION I; LITWIN GH, 1968, MOTIVATION ORGANIZAT; MCCANN EC, 1964, ACAD MANAGE J, V7, P149, DOI 10.2307/255023; MCMILLAN CJ, 1973, ACAD MANAGE J, V16, P555, DOI 10.2307/254690; MEADE RD, 1967, J SOC PSYCHOL, V72, P35, DOI 10.1080/00224545.1967.9922297; Miller JG, 1955, AM PSYCHOL, V10, P513, DOI 10.1037/h0045498; MOUTON JS, 1970, MANAGING ACCOMPLISHM, P208; NARAIN D, 1967, ANNALS           MAR, P124; Nath R., 1969, COMP MANAGEMENT MARK, P195; NEGANDHI AR, 1973, ACAD MANAGE J, V16, P570, DOI 10.2307/254691; NEGANDHI AR, 1973, MODERN ORG THEORY, P102; NEGANDHI AR, 1973, MANAGEMENT ECONOMIC; NEGANDHI AR, 1974, ORGANIZATION THEORY; OBERG W, 1963, ACAD MANAGE J, V6, P129, DOI 10.2307/254843; PARSONS T, 1961, THEORIES SOC, P38; PERROW C, 1967, AM SOC REV, V32, P192; PERROW C, 1969, COMPARATIVE ADMINIST, P33; PRASAD SB, 1968, MANAGERIALISM ECONOM; ROBERTS KH, 1970, PSYCHOLOGICAL B  NOV; RYTERBAND EC, 1970, MANAGING ACCOMPLISHM; SCHOLLHAMMER H, 1969, ACAD MANAGE J, V12, P81, DOI 10.2307/254675; Stogdill R.M., 1965, MANAGERS EMPLOYEES O; THIAGARAJAN KM, 1968, 23 U ROCH MAN RES CT; THOMPSON JD, 1958, AM SOCIOL REV, V23, P23, DOI 10.2307/2088620; THOMPSON JD, 1967, ORGANIZATIONS ACTION; Thorelli H.B., 1967, P ACADEMY MANAGEMENT, P66; Von Betalanffy L., 1950, SCIENCE, V3, P23; WOODWARD J, 1965, INDUSTRIAL ORGANIZAT; WOODWARD J, 1970, ORGANIZATIONAL BEHAV; 1967, WEBSTERS 7TH NEW COL, P895	61	24	25	0	6	ACAD MANAGEMENT	BRIARCLIFF MANOR	PACE UNIV, PO BOX 3020, 235 ELM RD, BRIARCLIFF MANOR, NY 10510-8020	0001-4273			ACAD MANAGE J	Acad. Manage. J.		1975	18	2					334	344		10.2307/255535				11	Business; Management	Business & Economics	AE039	WOS:A1975AE03900011					2019-01-18	
J	GORELIK, G				GORELIK, G			REEMERGENCE OF BOGDANOVS TEKTOLOGY IN SOVIET STUDIES OF ORGANIZATION	ACADEMY OF MANAGEMENT JOURNAL			English	Article									UNIV BRITISH COLUMBIA,FAC COMMERCE & BUSINESS ADM,VANCOUVER,BRITISH COLUMBI,CANADA							ALDFELDT NV, 1965, VOPROSY FILOSOFII, P10; BERTALANFFY LV, 1969, GENERAL SYSTEMS THEO; Blauberg I. V., 1969, SISTEMNYE ISSLEDOVAN, P7; BOGDANOV A, 1922, TEKTOLOGIA VSEOBSHCH; BOGOLEPOV VP, 1968, ORG UPRAVLENIE VOPRO, P38; GODUNOV AA, 1965, VOPROSY TEORII UPRAV; GORELIK G, 1974, 256 U BRIT FAC COMM; GROSSMAN G, 1966, PROBL COMMUNISM, V15, P43; LENIN VI, 1962, POLNOYE SOBRANIYE SO; LUBOVITCH YO, 1968, ORGANIZATSIYA UPRAVL, P64; PETROV AS, 1969, EKONOMITCHESKIYE OSN; SETROV MI, 1969, VOPR FILOSOFII, P28; SETROV MI, 1967, UCHENYE ZAPISKI KAFE; TAKHTAJIAN AL, 1972, SISTEMNYE ISSLEDOVAN, P200; *USSR AK NAUK, 1968, ORG UPR; 1930, BOLSHAYA SOVETSKAYA	16	1	1	0	1	ACAD MANAGEMENT	BRIARCLIFF MANOR	PACE UNIV, PO BOX 3020, 235 ELM RD, BRIARCLIFF MANOR, NY 10510-8020	0001-4273			ACAD MANAGE J	Acad. Manage. J.		1975	18	2					345	357		10.2307/255536				13	Business; Management	Business & Economics	AE039	WOS:A1975AE03900012					2019-01-18	
J	HELMICH, DL				HELMICH, DL			CORPORATE SUCCESSION - EXAMINATION	ACADEMY OF MANAGEMENT JOURNAL			English	Article									UNIV SAN DIEGO,SCH BUSINESS ADMIN,SAN DIEGO,CA 92110							ARGYRIS C, 1952, EXECUTIVE LEADERSHIP; Carlson R.O., 1962, EXECUTIVE SUCCESSION; Carlson RO, 1972, SCH SUPERINTENDENTS; DUN, 1966, MILLION DOLLAR DIREC; Fiedler F. E., 1974, LEADERSHIP EFFECTIVE; Fiedler F. E., 1967, THEORY LEADERSHIP EF; GORDON G, 1964, AM J SOCIOL, V70, P215, DOI 10.1086/223795; GOULDNER AW, 1954, PATTERNS INDUSTRIAL; GRUSKY O, 1960, SOC FORCES, V39, P105, DOI 10.2307/2574148; Grusky O., 1964, NEW MILITARY; GRUSKY O, 1961, AM J SOCIOL, V67, P263; GUEST RH, 1962, AM J SOCIOL, V68, P47, DOI 10.1086/223265; Haire M., 1966, MANAGERIAL THINKING; HELMICH DL, 1972, ADMIN SCI QUART, V17, P371, DOI 10.2307/2392150; HELMICH DL, 1974, ACAD MANAGE J, V17, P771, DOI 10.2307/255654; HELMICH DL, 1974, CORNELL J SOC RELAT, V9, P249; HELMICH DL, 1971, THESIS U OREGON; JANGER A, 1962, MANAGEMENT RECORD, V24, P237; Jennings E. E., 1960, ANATOMY LEADERSHIP P; KOTIN J, 1967, PSYCHIATR, V30, P237, DOI 10.1080/00332747.1967.11023513; Krech D, 1962, INDIVIDUAL SOC; Krech D, 1948, THEORY PROBLEMS SOCI; Lipset Seymour Martin, 1960, POLITICAL MAN; March J. G., 1958, ORGANIZATIONS; MCCLEERY RH, 1969, SOCIOLOGICAL READER; *MOOD INV SERV, 1966, MOOD IND MAN; MORSE NC, 1956, J ABNORM SOC PSYCH, V52, P120, DOI 10.1037/h0048893; PIGORS P, 1973, PERSONNEL ADMINISTRA; RICHARDS MD, 1972, MANAGEMENT DECISIONS; *STAND POOR, 1966, REG CORP DIR EX; TROLLOPE A, 1963, SOCIOLOGY LITERATURE; Whyte WF, 1949, AM J SOCIOL, V54, P302, DOI 10.1086/220366; WOODRUFF AM, 1958, SUCCESS FAILURE SMAL; ZALD MN, 1965, PAC SOCIOL REV, V8, P52; ZILLER R C, 1965, Psychol Bull, V64, P164, DOI 10.1037/h0022390	35	24	24	0	2	ACAD MANAGEMENT	BRIARCLIFF MANOR	PACE UNIV, PO BOX 3020, 235 ELM RD, BRIARCLIFF MANOR, NY 10510-8020	0001-4273			ACAD MANAGE J	Acad. Manage. J.		1975	18	3					429	441		10.2307/255674				13	Business; Management	Business & Economics	AR055	WOS:A1975AR05500001					2019-01-18	
J	WOLFE, J				WOLFE, J			COMPARATIVE EVALUATION OF EXPERIENTIAL APPROACH AS A BUSINESS POLICY LEARNING ENVIRONMENT	ACADEMY OF MANAGEMENT JOURNAL			English	Article									UNIV ILLINOIS,CHICAGO,IL 60680							ANDERSON LF, 1964, 1568 NW U US DEP HEW; BELASCO JA, 1973, 33RD ANN M AC MAN P, P235; Campbell D. T., 1971, ANN REV PSCYHOL, V22, P565; COHEN KJ, 1960, J BUS, V33, P303, DOI 10.1086/294361; DILL WR, 1963, MANAGE SCI, V10, P30, DOI 10.1287/mnsc.10.1.30; GLASER R, 1972, ANNU REV PSYCHOL, V23, P207, DOI 10.1146/annurev.ps.23.020172.001231; Graham R., 1969, BUSINESS GAMES HDB; Greenlaw P. S, 1973, SIMULATION GAMES, V4, P259; GUILFORD JP, 1973, FUNDAMENTAL STATISTI; HENSHAW RD, 1972, EXECUTIVE GAME; KEYS B, 1973, 33RD ANN M AC MAN P, P302; KLEIN WH, 1973, POLICY CONCEPTS ORGA; KNUDSON HR, 1973, MANAGEMENT EXPERIENT; Kolb DA, 1974, ORGANIZATIONAL PSYCH; LEWIN AY, 1969, ACAD MANAGE J, V12, P49, DOI 10.2307/254671; MCFARLAN FW, 1969, MANAGEMENT GAME; McKENNEY J. L., 1963, MANAGEMENT TECHNOLOG, V3, P56; MCKENNEY JL, 1962, J BUS, V35, P278, DOI 10.1086/294511; MCNICHOLS TJ, 1972, POLICY MAKING EXECUT; MOORE LF, 1967, TRAIN DEV J, V21, P13; POPP GE, 1973, 33RD ANN M AC MAN P, P211; RAIA AP, 1966, J BUS, V39, P339, DOI 10.1086/294863; STROTHER GB, 1966, EDUCATIONAL APPLICAT; VORA JA, 1973, 33RD ANN M AC MAN P, P298; WOLFE J, 1975, MANAGE SCI B-APPL, V21, P872, DOI 10.1287/mnsc.21.8.872; WOLFE J, 1973, 33RD P ANN M AC MAN, P291; Zuckerman D. W., 1973, GUIDE SIMULATIONS GA	27	17	17	0	4	ACAD MANAGEMENT	BRIARCLIFF MANOR	PACE UNIV, PO BOX 3020, 235 ELM RD, BRIARCLIFF MANOR, NY 10510-8020	0001-4273			ACAD MANAGE J	Acad. Manage. J.		1975	18	3					442	452		10.2307/255675				11	Business; Management	Business & Economics	AR055	WOS:A1975AR05500002					2019-01-18	
J	STEGER, JA; KELLEY, WB; CHOUINIERE, G; GOLDENBAUM, A				STEGER, JA; KELLEY, WB; CHOUINIERE, G; GOLDENBAUM, A			FORCED CHOICE VERSION OF MSCS AND HOW IT DISCRIMINATES CAMPUS LEADERS AND NONLEADERS	ACADEMY OF MANAGEMENT JOURNAL			English	Article									RENSSELAER POLYTECH INST,EARLY IDENTIFICATION MANAGEMENT PROJECT,TROY,NY 12100; RENSSELAER POLYTECH INST,SCH MANAGEMENT,TROY,NY; IBM,POUGHKEEPSIE,NY; TUTRON ELECT,COOPERSBURG,PA							CASS J, 1971, COMPARATIVE GUIDE SC; LACEY L, 1974, ACAD MANAGE J, V17, P354, DOI 10.2307/254988; MINER JB, 1971, ADMIN SCI QUART, V16, P351, DOI 10.2307/2391907; MINER JB, 1965, STUDIES MANAGEMENT E; MINER JB, 1964, SCORING GUIDE MSCS; MINER JB, 1974, HUMAN CONSTRAINT COM	6	6	6	0	2	ACAD MANAGEMENT	BRIARCLIFF MANOR	PACE UNIV, PO BOX 3020, 235 ELM RD, BRIARCLIFF MANOR, NY 10510-8020	0001-4273			ACAD MANAGE J	Acad. Manage. J.		1975	18	3					453	460		10.2307/255676				8	Business; Management	Business & Economics	AR055	WOS:A1975AR05500003					2019-01-18	
J	OLDHAM, GR				OLDHAM, GR			IMPACT OF SUPERVISORY CHARACTERISTICS ON GOAL ACCEPTANCE	ACADEMY OF MANAGEMENT JOURNAL			English	Article									UNIV ILLINOIS,DEPT BUSINESS ADM,URBANA,IL 61801							BACHMAN JG, 1966, J PERS SOC PSYCHOL, V4, P127, DOI 10.1037/h0023615; BACHMAN JG, 1968, CONTROL ORGANIZATION; Coch L, 1948, HUM RELAT, V1, P512, DOI 10.1177/001872674800100408; French J. R. P., 1959, STUD SOC POWER, P118; FRENCH JRP, 1960, HUM RELAT, V13, P3, DOI 10.1177/001872676001300101; FRENCH JRP, 1959, STUD SOC POWER, P150, DOI DOI 10.1016/S0883-9026(03)00011-9; HACKMAN JR, 1971, J APPL PSYCHOL, V55, P259, DOI 10.1037/h0031152; LAWLER EE, 1969, J APPL PSYCHOL, V53, P467, DOI 10.1037/h0028657; LOCKE EA, 1968, ORGAN BEHAV HUM PERF, V3, P157, DOI 10.1016/0030-5073(68)90004-4; LOCKE EA, 1967, J APPL PSYCHOL, V51, P120, DOI 10.1037/h0024471; LOCKE EA, 1966, J APPL PSYCHOL, V50, P60, DOI 10.1037/h0022937; LOCKE EA, 1967, GOALS INTENTIONS DET; McGregor D, 1960, HUMAN SIDE ENTERPRIS; MEYER HH, 1965, HARVARD BUS REV, V43, P123; MORSE NC, 1956, J ABNORM SOC PSYCH, V52, P120, DOI 10.1037/h0048893; Stedry A, 1960, BUDGET CONTROL COST; STEDRY AC, 1966, BEHAV SCI, V11, P459, DOI 10.1002/bs.3830110605; VITELES MS, 1953, MOTIVATION MORALE IN; VROOM VH, 1960, SOME PERSONALITY DET	19	36	36	0	8	ACAD MANAGEMENT	BRIARCLIFF MANOR	PACE UNIV, PO BOX 3020, 235 ELM RD, BRIARCLIFF MANOR, NY 10510-8020	0001-4273			ACAD MANAGE J	Acad. Manage. J.		1975	18	3					461	475		10.2307/255677				15	Business; Management	Business & Economics	AR055	WOS:A1975AR05500004					2019-01-18	
J	HUNT, JG; OSBORN, RN; LARSON, LL				HUNT, JG; OSBORN, RN; LARSON, LL			UPPER LEVEL TECHNICAL ORIENTATION AND FIRST LEVEL LEADERSHIP WITHIN A NONCONTINGENCY AND CONTINGENCY FRAMEWORK	ACADEMY OF MANAGEMENT JOURNAL			English	Article									SO ILLINOIS UNIV,CARBONDALE,IL 62901							ALEXANDER S, 1962, EDUC PSYCHOL MEAS, V22, P325, DOI 10.1177/001316446202200207; BABOW I, 1969, AM J MENT DEF, V74, P116; CAMPBELL JP, 1970, MANAGERIAL BEHAVIOR; COHEN J, 1962, J ABNORM PSYCHOL, V64, P349, DOI 10.1037/h0045526; COHEN J, 1968, PSYCHOL BULL, V70, P426, DOI 10.1037/h0026714; COHEN J, 1964, J CONSULTING PSYCHOL, V28, P325; Fiedler F. E., 1967, THEORY LEADERSHIP EF; Fleishman E. A., 1973, CURRENT DEV STUDY LE, P1; FLEISHMAN EA, 1973, CURRENT DEVELOPMENTS; HASENFELD Y, 1972, AM SOCIOL REV, V37, P256, DOI 10.2307/2093466; HELLRIEGEL D, 1974, ACAD MANAGE J, V17, P255, DOI 10.2307/254979; HERBERG EN, 1971, AM J PUBLIC HEALTH N, V61, P988; House R. H., 1974, CONTINGENCY APPROACH, P29; HOUSE RJ, 1971, J APPL PSYCHOL, V55, P422, DOI 10.1037/h0031775; HOUSE RJ, 1973, LEADER INITIATING ST; HUNT JG, 1974, CONTINGENCY APPROACH; HUNT JG, 1966, THESIS U ILLINOIS; HUNT JG, 1973, LEADERSHIP EFFECTIVE; HUSEK TR, 1963, EDUCATONAL PSYCHOLOG, V23; KELLY FJ, 1969, RESEARCH DESIGN BEHA; Korman A. K., 1974, CONTINGENCY APPROACH, P189; LAWRENCE PP, 1965, ORGANIZATIONAL BEHAV; LIKERT R, 1973, AM PSYCHOLOGICAL ASS; Maslow A. H., 1954, MOTIVATION PERSONALI; McGregor D, 1960, HUMAN SIDE ENTERPRIS; MOOS R, 1972, J ABNORM PSYCHOL, V79, P9, DOI 10.1037/h0032346; MOOS RH, 1967, ARCH GEN PSYCHIAT, V17, P75; NEGANDHI AR, 1972, ACAD MANAGE J, V15, P137, DOI 10.2307/254904; OAKLANDER H, 1964, ADMIN SCI QUART, V8, P520, DOI 10.2307/2391430; PELZ DC, 1952, PERSONNEL, V11, P3; PERROW C, 1970, ORGANIZATIONAL ANALY; SLOCUM JW, 1974, 17TH P ANN C MIDW AC; Smith P. C., 1969, MEASUREMENT SATISFAC; Stogdill R. M., 1974, HDB LEADERSHIP SURVE; STRUENING EL, 1963, EDUC PSYCHOL MEAS, V23, P289, DOI 10.1177/001316446302300206; TAYLOR JC, 1974, CONTINGENCY APPROACH; WHITLOCK GH, 1963, J APPL PSYCHOL, V47, P15, DOI 10.1037/h0048630	37	13	13	0	5	ACAD MANAGEMENT	BRIARCLIFF MANOR	PACE UNIV, PO BOX 3020, 235 ELM RD, BRIARCLIFF MANOR, NY 10510-8020	0001-4273			ACAD MANAGE J	Acad. Manage. J.		1975	18	3					476	488		10.2307/255678				13	Business; Management	Business & Economics	AR055	WOS:A1975AR05500005	1235929				2019-01-18	
J	CUMMINGS, LL; HINTON, BL; GOBDEL, BC				CUMMINGS, LL; HINTON, BL; GOBDEL, BC			CREATIVE BEHAVIOR AS A FUNCTION OF TASK ENVIRONMENT - IMPACT OF OBJECTIVES, PROCEDURES, AND CONTROLS	ACADEMY OF MANAGEMENT JOURNAL			English	Article									UNIV WISCONSIN,CTR STUDY ORG PERFORM,GRAD SCH BUSINE,MADISON,WI 53706; INDIANA UNIV,GRAD SCH BUSINESS,DEPT ADM & BEHAV STUDIES,BLOOMINGTON,IN; CROWE CHIZEK & CO,S BEND,IN							CHAMBERS JA, 1964, PSYCHOLOGICAL MONOGR, V7; COLGROVE MA, 1968, PSYCHOL REP, V22, P1205, DOI 10.2466/pr0.1968.22.3c.1205; CUMMINGS L, 1965, ACAD MANAGE J, V3, P220; DELLAS M, 1970, PSYCOLOGICAL B, V1, P55; GUETZKOW H, 1965, CREATIVE ORGANIZATIO; GUILFORD JP, 1963, 30 U SO CAL PSYCH LA; HAGE J, 1967, AM J SOCIOL, V72, P503, DOI 10.1086/224380; HINTON BL, 1968, J CREATIVE BEHAV, V2, P133, DOI 10.1002/j.2162-6057.1968.tb00095.x; HINTON BL, 1970, J CREATIVE BEHAVIOR, V3, P210; JONES FE, 1964, J APPL PSYCHOL, V48, P134, DOI 10.1037/h0047167; Kahn R. L., 1964, ORGANIZATIONAL STRES; KOPROWSKI EJ, 1972, J CREATIVE BEHAVIOR, V1, P49; MACKINNON DW, 1965, AM PSYCHOL, V20, P273, DOI 10.1037/h0022403; Maier N. R. F., 1970, PROBLEM SOLVING CREA; MAUSKE ME, 1968, J GENERAL PSYCHOLOGY, V78, P25; MCDERMID CD, 1965, J APPL PSYCHOL, V49, P14, DOI 10.1037/h0021658; MEEHL PE, 1965, CREATIVE ORGANIZATIO; PELZ DC, 1966, SCIENTISTS ORGANIZAT; RIZZO JR, 1970, ADMIN SCI QUART, V15, P150, DOI 10.2307/2391486; SCOTT WE, 1965, ACAD MANAGE J, V8, P211, DOI 10.2307/254789; STEIN MI, 1960, CREATIVITY INDIVIDUA; STEINER G, 1965, CREATIVE ORGANIZATIO; TAYLOR CW, 1964, WIDENING HORIZONS CR; TAYLOR CW, 1963, SCIENTIFIC CREATIVIT; Thompson V., 1965, ADMINISTRATIVE SCIEN, V1, P1; WARREN TF, 1969, PSYCHOL REP, V25, P207, DOI 10.2466/pr0.1969.25.1.207	26	15	15	0	12	ACAD MANAGEMENT	BRIARCLIFF MANOR	PACE UNIV, PO BOX 3020, 235 ELM RD, BRIARCLIFF MANOR, NY 10510-8020	0001-4273			ACAD MANAGE J	Acad. Manage. J.		1975	18	3					489	499		10.2307/255679				11	Business; Management	Business & Economics	AR055	WOS:A1975AR05500006					2019-01-18	
J	GOLEMBIEWSKI, RT; YEAGER, S; HILLES, R				GOLEMBIEWSKI, RT; YEAGER, S; HILLES, R			FACTOR-ANALYSIS OF SOME FLEXITIME EFFECTS - ATTITUDINAL AND BEHAVIORAL CONSEQUENCES OF A STRUCTURAL INTERVENTION	ACADEMY OF MANAGEMENT JOURNAL			English	Article									UNIV GEORGIA,ATHENS,GA 30601; SMITHKLINE CORP,PHILADELPHIA,PA							BOLTON J, 1971, FLEXIBLE WORKING HOU; CARRIGAN S, 1973, CURRENT PERSPECTIVES; ELBING AA, 1974, HARVARD BUSINESS REV, V52, P28; ELBING AA, 1974, HARVARD BUSINESS REV, V52, P24; ELBING AA, 1974, HARVARD BUSINESS REV, V52, P26; ELBING AA, 1974, HARVARD BUSINESS REV, V52, P154; ELBING AA, 1974, HARVARD BUSINESS REV, V52, P22; ELBING AA, 1974, HARVARD BUSINESS REV, V52, P33; ELBING AO, 1974, HARVARD BUS REV, V52, P18; EVANS MG, 1973, OCCUP PSYCHOL, V47, P237; GOLEMBIEWSKI RT, 1974, J APPL BEHAV SCI, V10, P503, DOI 10.1177/002188637401000404; Webb Eugene J., 1966, UNOBSTRUSIVE MEASURE; 1971, NEWSWEEK        0910, P71; 1971, NEWSWEEK        0910, P66	14	14	14	0	3	ACAD MANAGEMENT	BRIARCLIFF MANOR	PACE UNIV, PO BOX 3020, 235 ELM RD, BRIARCLIFF MANOR, NY 10510-8020	0001-4273			ACAD MANAGE J	Acad. Manage. J.		1975	18	3					500	509		10.2307/255680				10	Business; Management	Business & Economics	AR055	WOS:A1975AR05500007					2019-01-18	
J	DRANDELL, M				DRANDELL, M			COMPOSITE FORECASTING METHODOLOGY FOR MANPOWER PLANNING UTILIZING OBJECTIVE AND SUBJECTIVE CRITERIA	ACADEMY OF MANAGEMENT JOURNAL			English	Article									CALIF POLYTECH STATE UNIV,SCH BUSINESS & SOCIAL SCI,SAN LUIS OBISPO,CA 93401							Box GEP, 1970, TIME SERIES ANALYSIS; BROWN GR, 1963, SMOOTHING FORECASTIN; DELAVALLEEPOUSS.DC, 1973, SLOAN MANAGEMENT REV, V14; *GEN EL, 1969, MARK EC FOR; GROFF GK, 1973, J I MANAGEMENT SCIEN, V20, P22; HERTZ DB, 1968, HARVARD BUS REV, V46, P96; KOONTZ H, 1974, ESSENTIALS MANAGEMEN; REGELS CC, 1969, J I MANAGEMENT SCIEN, V10; ROMAN DD, 1970, ACAD MANAGE J, V13, P127, DOI 10.2307/255100	9	3	3	1	3	ACAD MANAGEMENT	BRIARCLIFF MANOR	PACE UNIV, PO BOX 3020, 235 ELM RD, BRIARCLIFF MANOR, NY 10510-8020	0001-4273			ACAD MANAGE J	Acad. Manage. J.		1975	18	3					510	519		10.2307/255681				10	Business; Management	Business & Economics	AR055	WOS:A1975AR05500008					2019-01-18	
J	REINHARTH, L; WAHBA, MA				REINHARTH, L; WAHBA, MA			EXPECTANCY THEORY AS A PREDICTOR OF WORK MOTIVATION, EFFORT EXPENDITURE, AND JOB-PERFORMANCE	ACADEMY OF MANAGEMENT JOURNAL			English	Article									CITY UNIV NEW YORK,YORK COLL,JAMAICA,NY 11432; CITY UNIV NEW YORK,BARUCH COLL,NEW YORK,NY							Arvey R. D., 1970, TASK PERFORMANCE FUN; Atkinson J., 1964, INTRO MOTIVATION; Atkinson J., 1966, THEORY ACHIEVEMENT M; BENTHAM J, 1789, PRINCIPLES MORALS LE; CAMPBELL JP, 1970, MANAGERIAL BEHAVIOR; Dulany D. E, 1968, VERBAL BEHAVIOR GENE, P340; DUNNETTE MD, 1967, ORG BEHAVIOR HUMAN P, V2, P175; EDWARDS W, 1961, ANNU REV PSYCHOL, V12, P473, DOI 10.1146/annurev.ps.12.020161.002353; EDWARDS W, 1953, AM J PSYCHOL, V66, P349, DOI 10.2307/1418231; EVANS JV, 1970, RADIO SCI, V5, P27, DOI 10.1029/RS005i001p00027; EVANS MG, 1969, J APPL PSYCHOL, V53, P93, DOI 10.1037/h0027097; EVANS MG, 1969, J APPL PSYCHOL, V53, P102, DOI 10.1037/h0027098; Fishbein M., 1967, READINGS ATTITUDE TH; GALBRAITH J, 1967, ORGAN BEHAV HUM PERF, V2, P237, DOI 10.1016/0030-5073(67)90020-7; GAVIN JF, 1970, EXPTL PUBLICATION SY, V5; GEORGOPOULOS BS, 1957, J APPL PSYCHOL, V41, P345, DOI 10.1037/h0048473; GHISELLI EE, 1955, PERSONNEL INDUSTRIAL; GOODMAN PS, 1970, J APPL PSYCHOL, V14, P491; GRAEN G, 1969, J APPL PSYCHOL, V53, P1, DOI 10.1037/h0027100; HACKMAN JR, 1968, ORGAN BEHAV HUM PERF, V3, P417, DOI 10.1016/0030-5073(68)90018-4; HENEMAN HG, 1972, PSYCHOL BULL, V78, P1, DOI 10.1037/h0033093; HILL JW, 1970, ORGAN BEHAV HUM PERF, V5, P449, DOI 10.1016/0030-5073(70)90034-6; House R. J., 1972, MANAGERIAL MOTIVATIO; HOUSE RJ, 1971, ADMIN SCI QUART, V16, P321, DOI 10.2307/2391905; HOUSE RJ, 1974, DECISION SCI     DEC, P54; JAMES W, 1890, PRINCIPLES PSYCHOLOG; LAWLER EE, 1968, J APPL PSYCHOL, V52, P462, DOI 10.1037/h0026499; LAWLER EE, 1967, ORGAN BEHAV HUM PERF, V2, P122, DOI 10.1016/0030-5073(67)90026-8; LAWLER EE, 1970, PERS PSYCHOL, V23, P223, DOI 10.1111/j.1744-6570.1970.tb01652.x; LAWLER EE, 1971, PAY ORGANIZATIONAL E; Lewin K, 1935, DYNAMIC THEORY PERSO; Lewin K., 1938, CONCEPTUAL REPRESENT; McClelland D., 1961, ACHIEVING SOC; MITCHELL TR, 1971, PSYCHOL BULL, V76, P432, DOI 10.1037/h0031831; MITCHELL TR, 1972, ORGAN BEHAV HUM PERF, V8, P1, DOI 10.1016/0030-5073(72)90033-5; MITCHELL TR, 1971, 7119 U WASH ORG RES; MITCHELL TR, 1971, 7127 U WASH TECH REP; MOBLEY WH, 1971, THESIS U MARYLAND; NAGEL JH, 1968, BEHAV SCI, V13, P129, DOI 10.1002/bs.3830130205; PATCHEN M, 1965, SOME QUESTIONNAIRE M; PEAK H, 1955, NEBRASKA S MOTIVATIO; Porter L.W., 1968, MANAGERIAL ATTITUDES; PRITCHARD RD, 1973, J APPL PSYCHOL, V57, P55, DOI 10.1037/h0034197; PRITCHARD RD, 1973, J APPL PSYCHOL, V57, P264, DOI 10.1037/h0034719; Rotter J. B., 1954, SOCIAL LEARNING CLIN; SCHWAB DP, UNPUBLISHED PAPER; SHAPIRO HJ, 1973, P EASTERN ACADEMY MA; TOLMAN EC, 1932, PURPOSIVE BEHAVIOR A; VROOM VH, 1964, WORK MOTIVATION; WAHBA MA, 1973, HUMAN RELATIONS, V25, P515; WAHBA MA, 1974, HUMAN RELATIONS, V26; WOFFORD JC, 1971, PERS PSYCHOL, V24, P501, DOI 10.1111/j.1744-6570.1971.tb00373.x	52	19	19	1	16	ACAD MANAGEMENT	BRIARCLIFF MANOR	PACE UNIV, PO BOX 3020, 235 ELM RD, BRIARCLIFF MANOR, NY 10510-8020	0001-4273			ACAD MANAGE J	Acad. Manage. J.		1975	18	3					520	537		10.2307/255682				18	Business; Management	Business & Economics	AR055	WOS:A1975AR05500009					2019-01-18	
J	KRAUT, AI				KRAUT, AI			SOME RECENT ADVANCES IN CROSS-NATIONAL MANAGEMENT RESEARCH	ACADEMY OF MANAGEMENT JOURNAL			English	Article									IBM CORP,ARMONK,NY 10504; PACE UNIV,GRAD SCH BUSINESS,NEW YORK,NY							BARNET R, 1974, NEW YORKER      1202, P55; BASS BM, 1973, IND RELAT, V12, P158, DOI 10.1111/j.1468-232X.1973.tb00545.x; BASS BM, 1967, TRAIN DEV J, V21, P2; BASS BM, 1971, J APPL BEHAV SCI, V7, P285, DOI 10.1177/002188637100700302; BASS BM, 1972, J APPL PSYCHOL, V56, P312, DOI 10.1037/h0033086; BASS BM, 1968, ONRN0001467A CONTR; BASS BM, 1973, 70 U ROCH MAN RES CT; BASS BM, 1974, IRGOM745 STAT U NEW; BASS BM, 1974, IRGON742 U ROCH GRAD; BODDEWYN J, 1970, COMPARATIVE MANAGEME; CASCIO WF, 1973, ONRN0001467A03980012; Drucker P. E., 1974, MANAGEMENT TASKS RES; ENGLAND GW, 1974, J APPL PSYCHOL, V59, P411, DOI 10.1037/h0037320; ENGLAND GW, 1971, ACAD MANAGE J, V14, P425, DOI 10.2307/255058; ENGLAND GW, 1973, ORGAN BEHAV HUM PERF, V9, P48, DOI 10.1016/0030-5073(73)90036-6; ENGLAND GW, 1971, MANUAL DEVELOPMENT R; FARRIS GF, 1973, CURRENT DEVELOPMENTS, P105; GRAVES D, 1973, MANAGEMENT RESEARCH; Haire M., 1966, MANAGERIAL THINKING; HELLER F, 1970, HUMAN RELATIONS, V23; HELLER FA, 1969, PSYCHOL BULL, V72, P108, DOI 10.1037/h0027733; HELLER FA, 1973, IND RELAT, V12, P183, DOI 10.1111/j.1468-232X.1973.tb00548.x; HELLER FA, 1973, MANAGEMENT RESEARCH; HELLER FA, 1972, INT STUDIES MANAGEME, V2, P85; HELLER FA, 1973, QUART J MANAGEMENT D, V4, P63; HOFSTEDE GH, 1972, COLUMBIA J WORLD BUS, V7, P72; HOFSTEDE GM, 1972, IBM13 EUR PERS RES S; KRAUT AI, 1974, 18TH S NT C APPL PSY; McClelland D., 1961, ACHIEVING SOC; NEGANDHI AR, 1969, COMPARATIVE ADMINIST; ROBERTS KH, 1973, IND RELAT, V12, P137, DOI 10.1111/j.1468-232X.1973.tb00543.x; ROBERTS KH, 1970, PSYCHOL BULL, V74, P327, DOI 10.1037/h0030140; ROBERTS KH, 1974, N00031469A02001054 C; RYTERBAND EC, 1969, ONRN0001467A03980002; SCHAUPP DL, 1973, THESIS U KENTUCKY; SCHEIN E, 1964, ORGANIZATIONAL PSYCH; SIMONETTI SH, 1971, PERSONNEL PSYCHOL, V25, P107; SIROTA D, 1971, HARVARD BUS REV, V49, P53; *US DEP COMM, 1974, SURV CURR BUS    FEB, V54, P5	39	18	18	0	1	ACAD MANAGEMENT	BRIARCLIFF MANOR	PACE UNIV, PO BOX 3020, 235 ELM RD, BRIARCLIFF MANOR, NY 10510-8020	0001-4273			ACAD MANAGE J	Acad. Manage. J.		1975	18	3					538	549		10.2307/255683				12	Business; Management	Business & Economics	AR055	WOS:A1975AR05500010					2019-01-18	
J	CONNOR, PE; BECKER, BW				CONNOR, PE; BECKER, BW			VALUES AND ORGANIZATION - SUGGESTIONS FOR RESEARCH	ACADEMY OF MANAGEMENT JOURNAL			English	Article									OREGON STATE UNIV,SCH BUSINESS,CORVALLIS,OR 97331							BARNES LB, 1960, ORGANIZATIONAL SYSTE; Becker H., 1961, BOYS WHITE STUDENT C; BLAU PM, 1971, STRUCTURE ORGANIZATI; CAMBELL DT, 1950, PSYCHOL B, V47, P15; Churchman C. W, 1961, PREDICTION OPTIMAL D; CONNOR PE, 1974, P ACADEMY MANAGEMENT, P88; CONNOR PE, 1973, P MT PLAINS MANAGEME; COUGHLAN RJ, 1971, EDUC ADMIN QUART, V7, P40, DOI 10.1177/0013161X7100700204; COUGHLAN RJ, 1969, EDUC ADMIN QUART, V5, P53, DOI 10.1177/0013161X6900500304; DESALVI N, 1971, ACAD MANAGE J, V14, P227; DILL WR, 1962, NEW MANAGERS; DRAKE JW, 1973, TRANPSORTATION RESEA, P659; ENGLAND GW, 1967, ACAD MANAGE J, V10, P107, DOI 10.2307/254630; ENGLAND GW, 1974, P ACADEMY MANAGEMENT, P81; GIES FJ, 1971, NEGRO EDUCATIONAL RE, V22, P152; Goffman E., 1961, ASYLUMS; GOULD J, 1964, DICTIONARY SOCIAL SC; GROSS N, 1958, EXPLORATIONS ROLE AN; HAGE J, 1973, ADMIN SCI QUART, V18, P279, DOI 10.2307/2391664; Hall R. H., 1972, ORGANIZATIONS STRUCT; HEFFERMAN E, 1972, MAKING IT PRISON; HESEL R, 1971, EDUCATION ADMINISTRA, V7, P24; HODGKINSON C, 1971, ED ADM Q, V7, P46; KAST FE, 1974, ORGANIZATION MANAGEM; KATZ D, 1966, SOCIAL PSYCHOLOGY; Katz D., 1959, PSYCHOL STUDY SCI, V3, P423; Kluckhohn C. K., 1962, GEN THEORY ACTION, P388; LOCKE EA, 1970, ORGAN BEHAV HUM PERF, V5, P484, DOI 10.1016/0030-5073(70)90036-X; MERTON RK, 1957, STUDENT PHYSICIAN; Moore W., 1970, PROFESSIONS ROLES RU; PALEN JJ, 1972, SOCIOLOGICAL QUART, V13, P145; PARSONS T, 1956, ADMIN SCI QUART, V1, P63, DOI 10.2307/2390840; PEERY NS, 1973, P MT PLAINS MANAGEME; PENNINGS JM, 1970, ADMIN SCI QUART, V15, P397, DOI 10.2307/2391330; PERROW C, 1966, SOC PROBL, V14, P69, DOI 10.1525/sp.1966.14.1.03a00090; PORTER LW, 1965, PSYCHOLOGICAL B, V64, P24; ROBINSON JP, 1969, MEASURES SOCIAL PSYC; ROKEACH M, 1969, PUBLIC OPIN QUART, V32, P547; Rokeach M., 1968, BELIEFS ATTITUDES VA; SCOTT WA, 1956, VALUES ORGANIZATIONS; SCOTT WE, 1973, READINGS ORGANIZATIO; SIKULA AF, 1971, PERS J, V50, P310; THEODORSON GA, 1969, MODERN DICTIONARY SO; THOMAS CW, 1973, SOCIOL QUART, V14, P226, DOI 10.1111/j.1533-8525.1973.tb00855.x; THOMPSON JD, 1967, ORGANIZATIONS ACTION; Vollmer H. M., 1966, PROFESSIONALIZATION; WOODWARD J, 1965, INDUSTRIAL ORGANIZAT; ZALD MN, 1963, SOCIOL QUART, V4, P206, DOI 10.1111/j.1533-8525.1963.tb01588.x	48	56	57	1	3	ACAD MANAGEMENT	BRIARCLIFF MANOR	PACE UNIV, PO BOX 3020, 235 ELM RD, BRIARCLIFF MANOR, NY 10510-8020	0001-4273			ACAD MANAGE J	Acad. Manage. J.		1975	18	3					550	561		10.2307/255684				12	Business; Management	Business & Economics	AR055	WOS:A1975AR05500011					2019-01-18	
J	DOWNEY, HK; SLOCUM, JW				DOWNEY, HK; SLOCUM, JW			UNCERTAINTY - MEASURES, RESEARCH, AND SOURCES OF VARIATION	ACADEMY OF MANAGEMENT JOURNAL			English	Article									OKLAHOMA STATE UNIV,STILLWATER,OK 74074; OHIO STATE UNIV,COLUMBUS,OH							BLANDIN J, 1974, 34TH ANN AC MAN M; BUDNER S, 1962, J PERSONALITY, V30, P20; Burns T, 1961, MANAGEMENT INNOVATIO; Cherry C, 1966, HUMAN COMMUNICATION; Dalton M., 1959, MEN WHO MANAGE; DILL WR, 1962, NEW MANAGERS; DOWNEY K, 1974, 34TH ANN AC MAN M; DUNCAN RB, 1972, ADMIN SCI QUART, V17, P313, DOI 10.2307/2392145; EMERY FE, 1967, HUM RELAT, V20, P199, DOI 10.1177/001872676702000301; EMERY FE, 1965, HUM RELAT, V18, P21, DOI 10.1177/001872676501800103; GALBRAITH JR, 1973, DESIGNING COMPLEX OR; HARVEY E, 1968, AM SOCIOL REV, V33, P247, DOI 10.2307/2092391; JACQUES E, 1961, EQUITABLE PAYMENT; Jacques E., 1956, MEASUREMENT RESPONSI; Kahn R. L., 1964, ORGANIZATIONAL STRES; Kaplan A., 1964, CONDUCT INQUIRY; KELLER RT, 1974, ACAD MANAGE J, V17, P56, DOI 10.2307/254771; Koffka K., 1935, PRINCIPLES GESTALT P; LAWRENCE PR, 1967, ADMIN SCI QUART, V12, P1, DOI 10.2307/2391211; LAWRENCE PR, 1973, ADMIN SCI QUART, V18, P397; LAWRENCE PR, 1967, ORGANIZATION ENVIRON; LITSCHERT RJ, 1971, ACAD MANAGE J, V14, P33, DOI 10.2307/254709; LORSCH JW, 1973, MANAGING DIVERSITY I; Mead George H, 1934, MIND SELF SOC; Michael D., 1973, LEARNING PLAN PLANNI; PERROW C, 1970, ORGANIZATIONAL ANALY; SECORD PF, 1964, SOCIAL PSYCHOLOGY; SHAW M, 1970, THEORIES SOCIAL PSYC; Sommerhoff G., 1969, SYSTEMS THINKING; TERREBERRY S, 1968, ADMIN SCI QUART, V12, P590, DOI 10.2307/2391535; THOMPSON JD, 1967, ORGANIZATIONS ACTION; TOSI H, 1973, ADMIN SCI QUART, V18, P27, DOI 10.2307/2391925; VANNOY JS, 1965, J PERS SOC PSYCHOL, V2, P385, DOI 10.1037/h0022270; WOODWARD J, 1965, INDUSTRIAL ORGANIZAT; ZALTMAN G, 1973, INNOVATIONS ORGANIZA; Zwerman W.L., 1970, NEW PERSPECTIVES ORG	36	159	162	1	18	ACAD MANAGEMENT	BRIARCLIFF MANOR	PACE UNIV, PO BOX 3020, 235 ELM RD, BRIARCLIFF MANOR, NY 10510-8020	0001-4273			ACAD MANAGE J	Acad. Manage. J.		1975	18	3					562	578		10.2307/255685				17	Business; Management	Business & Economics	AR055	WOS:A1975AR05500012					2019-01-18	
J	MCNULTY, MS				MCNULTY, MS			QUESTION OF MANAGERIAL LEGITIMACY	ACADEMY OF MANAGEMENT JOURNAL			English	Article									SETON HALL UNIT,W PAUL STILLMAN SCH BUSINESS,S ORANGE,NJ 07079							ADAMS JS, 1962, J APPL PSYCHOL, V46, P161, DOI 10.1037/h0047751; ADAMS JS, 1963, IND RELAT, V3, P9, DOI 10.1111/j.1468-232X.1963.tb00805.x; ADAMS JS, 1963, J ABNORM PSYCHOL, V67, P422, DOI 10.1037/h0040968; BARNARD C., 1938, FUNCTIONS EXECUTIVE; BOULDING KE, 1973, J ECONOMIC ISSUES, V7; COOKE JW, 1973, J HIST IDEAS, V34, P563, DOI 10.2307/2708888; Drucker Peter, 1942, FUTURE INDUSTRIAL MA; EELLS R, 1974, CONCEPTUAL F BUSINES; Festinger L., 1957, THEORY COGNITIVE DIS; FOLLETT MP, DYNAMIC ADMINISTRATI; French W., 1974, PERSONNEL MANAGEMENT; HARBRECHT PB, 1959, TOWARD PARAPROPRIETA; Hobhouse L. T., 1951, MORALS EVOLUTION STU; HOMANS GC, 1961, SOCIAL BEHAVIOR ITS; KUHN JW, 1968, BUSINESS AM; LOCKE J, 1943, CIVIL GOVERNMENT; Locke John, 1960, 2 TREATISES GOVERNME; Maslow A. H., 1954, MOTIVATION PERSONALI; Mason E. S., 1959, CORPORATION MODERN S; Means G, 1932, MODERN CORPORATION P; PRITCHARD RD, 1972, J APPL PSYCHOL, V56, P75, DOI 10.1037/h0032135; RANDALL JH, 1963, CAREER PHILOSOPHY; REICH CA, 1964, YALE LAW J, V73; RILEY P, 1973, J HISTORY IDEAS, V34, P542; ROUSSEAU JEAN JACQUES, 1954, SOCIAL CONTRACT; WALTON C, 1967, BUSINESS SYSTEM READ	26	0	0	0	2	ACAD MANAGEMENT	BRIARCLIFF MANOR	PACE UNIV, PO BOX 3020, 235 ELM RD, BRIARCLIFF MANOR, NY 10510-8020	0001-4273			ACAD MANAGE J	Acad. Manage. J.		1975	18	3					579	588		10.2307/255686				10	Business; Management	Business & Economics	AR055	WOS:A1975AR05500013					2019-01-18	
J	CARROLL, AB; BEILER, GW				CARROLL, AB; BEILER, GW			LANDMARKS IN EVOLUTION OF SOCIAL AUDIT	ACADEMY OF MANAGEMENT JOURNAL			English	Article									UNIV GEORGIA,ATHENS,GA 30601; USA,WASHINGTON,DC							BAUER RA, 1973, CALIF MANAGE REV, V16, P5, DOI 10.2307/41164471; BAUER RA, 1973, HARVARD BUS REV, V51, P37; BAUER RA, 1973, CORPORATE SOCIAL ACC, P3; Bowen H. R., 1953, SOCIAL RESPONSIBILIT; BUTCHER BL, 1973, CALIF MANAGE REV, V16, P11, DOI 10.2307/41164472; CARROLL AB, 1974, J BUSINESS RESEARCH, V2, P76; GRAY DH, 1973, CALIF MANAGE REV, V15, P106, DOI 10.2307/41164467; HEALD M, 1957, BUS HIST REV, V31, P375, DOI 10.2307/3111413; KREPS TJ, 1962, ANN AM ACAD POLIT SS, V343, P20, DOI 10.1177/000271626234300104; KREPS TJ, 1940, 7 TEMP NAT EC COMM M; Linowes D., 1972, BUSINESS SOC REV WIN, P39; *NAT IND CONF BOAR, 1939, STUD ENT SOC PROGR; RICHMAN B, 1973, CALIF MANAGE REV, V15, P20, DOI 10.2307/41164436; SCOVILLE J, 1942, FACT FANCY TNEC MONO; SETHI S, 1972, BUSINESS SOC REV WIN, P31; STEINER GA, 1972, CONF BOARD REC, V9, P7; STEINER GA, 1972, CALIF MANAGE REV, V15, P17, DOI 10.2307/41164414; STEINER GA, 1974, SUMMARY RESULTS SURV	18	16	16	0	6	ACAD MANAGEMENT	BRIARCLIFF MANOR	PACE UNIV, PO BOX 3020, 235 ELM RD, BRIARCLIFF MANOR, NY 10510-8020	0001-4273			ACAD MANAGE J	Acad. Manage. J.		1975	18	3					589	599		10.2307/255687				11	Business; Management	Business & Economics	AR055	WOS:A1975AR05500014					2019-01-18	
J	ADAM, EE				ADAM, EE			BEHAVIOR-MODIFICATION IN QUALITY-CONTROL	ACADEMY OF MANAGEMENT JOURNAL			English	Article									UNIV MISSOURI,COLUMBIA,MO 65201							ADAM EE, 1972, J APPL PSYCHOL, V56, P480, DOI 10.1037/h0033748; ADAM EE, 1971, ACAD MANAGE J, V14, P175, DOI 10.2307/255305; ADAM EE, 1973, MAY AM SOC QUAL CONT, P314; JOHNSON GA, 1971, THESIS INDIANA U; MITCHELL VF, 1971, P ACADEMY MANAGEMENT, P210; SHEIN JB, 1968, THESIS INDIANA U; Smith P. C., 1967, STUDIES PERSONNEL IN, P343; 1965, QUALITY RELIABILITY	8	13	13	1	4	ACAD MANAGEMENT	BRIARCLIFF MANOR	PACE UNIV, PO BOX 3020, 235 ELM RD, BRIARCLIFF MANOR, NY 10510-8020	0001-4273			ACAD MANAGE J	Acad. Manage. J.		1975	18	4					662	679		10.2307/255370				18	Business; Management	Business & Economics	AZ094	WOS:A1975AZ09400001					2019-01-18	
J	AZIM, AN; BOSEMAN, FG				AZIM, AN; BOSEMAN, FG			EMPIRICAL-ASSESSMENT OF ETZIONIS TOPOLOGY OF POWER AND INVOLVEMENT WITHIN A UNIVERSITY SETTING	ACADEMY OF MANAGEMENT JOURNAL			English	Article									UNIV CALGARY,CALGARY,ALBERTA,CANADA; TEMPLE UNIV,PHILADELPHIA,PA							AZIM AN, 1975, 18TH P ANN C MIDW DI; AZIM AN, 1973, POWER CONCEPTS POWER; Bierstedt R, 1950, AM SOCIOL REV, V15, P730, DOI 10.2307/2086605; CARTWRIGHT D, 1968, GROUP DYNAMICS; ETZIONI A, 1968, ACTIVE SOC; ETZIONI A, 1964, MODERN ORGANIZATIONS; ETZIONI A, 1968, PEOPLE GROUPS ORGANI; ETZIONI A, 1961, COMPARATIVE ANALYSIS; FILLEY AC, 1969, MANAGERIAL PROCESS O; GAMSON ZF, 1966, SOCIOL EDUC, V39, P46, DOI 10.2307/2111823; GREEN PE, 1970, RESEARCH MARKETING D; GRUSKY O, 1970, SOCIOLOGY ORGANIZATI; HALL RH, 1972, ORGANIZATIONS STRUCT, P206; HERSEY P, 1972, MANAGEMENT ORGANIZAT; JULIAN J, 1968, SOC FORCES, V47, P12, DOI 10.2307/2574706; MECHANIC D, 1962, ADMIN SCI QUART, V7, P349, DOI 10.2307/2390947; RICE GH, 1971, CENCEPTUAL MODELS OR; Russell B., 1938, POWER; SHAW M, 1970, THEORIES SOCIAL PSYC; WARREN DI, 1968, AM SOCIOLOGICAL REV, V33, P499	20	3	3	0	2	ACAD MANAGEMENT	BRIARCLIFF MANOR	PACE UNIV, PO BOX 3020, 235 ELM RD, BRIARCLIFF MANOR, NY 10510-8020	0001-4273			ACAD MANAGE J	Acad. Manage. J.		1975	18	4					680	689		10.2307/255371				10	Business; Management	Business & Economics	AZ094	WOS:A1975AZ09400002					2019-01-18	
J	HUNT, JW; SAUL, PN				HUNT, JW; SAUL, PN			RELATIONSHIP OF AGE, TENURE, AND JOB-SATISFACTION IN MALES AND FEMALES	ACADEMY OF MANAGEMENT JOURNAL			English	Article									MACQUARIE UNIV,N RYDE,AUSTRALIA; ROY COMM AUSTRALIAN GOVT ADM,CANBERRA,AUSTRALIA							Argyris C., 1964, INTEGRATING INDIVIDU; ARMSTRONG TB, 1971, J APPL PSYCHOL, V55, P57, DOI 10.1037/h0030632; CENTERS R, 1966, J APPL PSYCHOL, V50, P193, DOI 10.1037/h0023420; CUMMINGS LL, 1968, PSYCHOL BULL, V70, P127, DOI 10.1037/h0026038; EVANS MG, 1972, STUD PERS PSYCHOL, V4, P45; FORD RN, 1973, HARVARD BUS REV, V51, P96; FOURNET GP, 1966, PERS PSYCHOL, V19, P165, DOI 10.1111/j.1744-6570.1966.tb02026.x; FRIEDLANDER F, 1966, J APPL PSYCHOL, V50, P143, DOI 10.1037/h0023081; GIBSON JL, 1970, ACAD MANAGE J, V13, P411, DOI 10.2307/254831; GUILFORD JP, 1956, FUNDAMENTAL STATISTI; Herzberg F., 1957, JOB ATTITUDES REV RE; HULIN CL, 1965, J APPL PSYCHOL, V49, P209, DOI 10.1037/h0022164; HUNT J, 1972, RESTLESS ORGANIZATIO; ILGEN DR, 1971, ORGAN BEHAV HUM PERF, V6, P345, DOI 10.1016/0030-5073(71)90022-5; KATZ D, 1966, SOCIAL PSYCHOLOGY; KORNHAUSER W, 1962, SCIENTISTS INDUSTRY; MORSE N, 1953, SATISFACTION WHITE C; Porter L.W., 1968, MANAGERIAL ATTITUDES; PORTER LW, 1973, PSYCHOL BULL, V80, P151, DOI 10.1037/h0034829; Rush Harold M. F., 1971, JOB DESIGN MOTIVATIO; SAUL PN, 1975, THESIS U NEW S WALES; WANOUS JP, 1972, J APPL PSYCHOL, V56, P95, DOI 10.1037/h0032664	22	77	77	0	9	ACAD MANAGEMENT	BRIARCLIFF MANOR	PACE UNIV, PO BOX 3020, 235 ELM RD, BRIARCLIFF MANOR, NY 10510-8020	0001-4273			ACAD MANAGE J	Acad. Manage. J.		1975	18	4					690	702		10.2307/255372				13	Business; Management	Business & Economics	AZ094	WOS:A1975AZ09400003					2019-01-18	
J	STARKE, FA; BEHLING, O				STARKE, FA; BEHLING, O			TEST OF 2 POSTULATES UNDERLYING EXPECTANCY THEORY	ACADEMY OF MANAGEMENT JOURNAL			English	Article									UNIV MANITOBA,WINNIPEG,MANITOBA,CANADA; OHIO STATE UNIV,COLUMBUS,OH							ADAMS JS, 1963, J ABNORM PSYCHOL, V67, P422, DOI 10.1037/h0040968; BEHLING O, 1973, ACAD MANAGE J, V16, P373, DOI 10.2307/254999; CAMPBELL JP, 1970, MANAGERIAL BEHAVIOR; DACHLER HP, 1973, J APPL PSYCHOL, V58, P397, DOI 10.1037/h0036297; DELEO PJ, 1974, ORGAN BEHAV HUM PERF, V12, P143, DOI 10.1016/0030-5073(74)90043-9; GRAEN G, 1969, J APPL PSYCHOL, V53, P1, DOI 10.1037/h0027100; Herzberg F, 1959, MOTIVATION WORK; HOUSE RJ, UNPUBLISHED PAPER; HOUSE RJ, 1974, DECISION SCI, V5, P54; LAWLER EE, 1968, J APPL PSYCHOL, V52, P462, DOI 10.1037/h0026499; LAWLER EE, 1971, PAY ORGANIZATION EFF; LAWLER EE, 1973, ORGANIZATIONAL BEHAV, V9, P460; LUCE RD, 1962, SOCIAL SCI APPROACHE, P141; Maslow AH, 1943, PSYCHOL REV, V50, P370, DOI 10.1037/h0054346; MITCHELL T, 1971, 7119 U WASH DEP PSYC; MITCHELL TR, 1971, PSYCHOL BULL, V76, P432, DOI 10.1037/h0031831; MITCHELL TR, 1974, PSYCHOL BULL, V81, P1053, DOI 10.1037/h0037495; Porter L.W., 1968, MANAGERIAL ATTITUDES; PRITCHARD RD, 1973, J APPL PSYCHOL, V57, P55, DOI 10.1037/h0034197; SAVAGE LJ, 1954, F STATISTICS; SHERIDAN JE, 1973, ACAD MANAGE J, P414; SHERIDAN JE, 1974, DECISION SCI, V5, P507; VROOM VH, 1964, WORK MOTIVATION; WAHBA M, UNPUBLISHED PAPER	24	6	6	1	3	ACAD MANAGEMENT	BRIARCLIFF MANOR	PACE UNIV, PO BOX 3020, 235 ELM RD, BRIARCLIFF MANOR, NY 10510-8020	0001-4273			ACAD MANAGE J	Acad. Manage. J.		1975	18	4					703	714		10.2307/255373				12	Business; Management	Business & Economics	AZ094	WOS:A1975AZ09400004					2019-01-18	
J	MANNERS, GE				MANNERS, GE			ANOTHER LOOK AT GROUP SIZE, GROUP PROBLEM-SOLVING, AND MEMBER CONSENSUS	ACADEMY OF MANAGEMENT JOURNAL			English	Article									RENSSELAER POLYTECH INST,TROY,NY 12181							Asch S. E., 1953, GROUP DYNAMICS RES T, P151; BARNLUND DC, 1959, J ABNORM SOC PSYCH, V58, P55, DOI 10.1037/h0040823; BASS BM, 1960, SOCIOMETRY, V23, P195, DOI 10.2307/2785682; CUMMINGS LL, 1974, ACAD MANAGE J, V17, P460, DOI 10.2307/254650; FRYE RL, 1964, J SOC PSYCHOL, V62, P131, DOI 10.1080/00224545.1964.9919509; GERARD HB, 1968, J PERS SOC PSYCHOL, V8, P79, DOI 10.1037/h0025325; GIBB CA, 1961, AM PSYCHOLOGIST, V6, P324; GOLDBERG SC, 1954, J ABNORM SOC PSYCH, V49, P325, DOI 10.1037/h0056249; GOLDMAN M, 1967, J PERS SOC PSYCHOL, V7, P222, DOI 10.1037/h0024998; HALL G, 1971, PSYCHOLOGY TODAY, V5, P86; HALL G, 1971, PSYCHOLOGY TODAY, V5, P51; Hare AP, 1952, AM SOCIOL REV, V17, P261, DOI 10.2307/2088071; KIDD GS, 1958, J ABNORMAL SOCIAL PS, V56, P13; KIDD GS, 1961, J APPLIED PSYCHOLOGY, V45, P195; KISKIDA M, 1961, JAPANESE J PSYCHOLOG, V27, P172; LORGE I, 1959, J PSYCHOL, V48, P107, DOI 10.1080/00223980.1959.9916346; LORGE I, 1960, BEHAV SCI, V5, P28; Marriott R, 1949, OCCUP PSYCHOL, V23, P47; MILLER NE, 1950, EFFECTS GROUP SIZE G; MORRISETTE GO, 1966, J PERSONALITY SOCIAL, V3, P357; PORTER DE, 1963, IMR-IND MANAG REV, V4, P1; Seashore S.E., 1954, GROUP COHESIVENESS I; SLATER PE, 1958, SOCIOMETRY, V21, P129, DOI 10.2307/2785897; South EB, 1927, J APPL PSYCHOL, V11, P348, DOI 10.1037/h0070467; STEINER ID, 1961, BEHAVIORAL SCIENCE, V6, P53; STONE WF, 1967, J PERS SOC PSYCHOL, V5, P76, DOI 10.1037/h0024079; TAYLOR DW, 1952, J EXP PSYCHOL, V44, P360, DOI 10.1037/h0054376; THOMAS EJ, 1963, PSYCHOL BULL, V60, P371, DOI 10.1037/h0047169; THOMAS EJ, 1961, J ABNORM SOC PSYCH, V63, P53, DOI 10.1037/h0040512; WATSON HB, 1928, J ABNORMAL SOCIAL PS, V23, P328; WORTHY PC, 1950, AM SOCIOLOGICAL REV, V15, P169; ZAJONC RB, 1962, HUM RELAT, V15, P177, DOI 10.1177/001872676201500206; ZILLER RC, 1957, SOCIOMETRY, V20, P165, DOI 10.2307/2785643	33	12	12	2	6	ACAD MANAGEMENT	BRIARCLIFF MANOR	PACE UNIV, PO BOX 3020, 235 ELM RD, BRIARCLIFF MANOR, NY 10510-8020	0001-4273			ACAD MANAGE J	Acad. Manage. J.		1975	18	4					715	724		10.2307/255374				10	Business; Management	Business & Economics	AZ094	WOS:A1975AZ09400005					2019-01-18	
J	HUBER, GP; OCONNELL, MJ; CUMMINGS, LL				HUBER, GP; OCONNELL, MJ; CUMMINGS, LL			PERCEIVED ENVIRONMENTAL UNCERTAINTY - EFFECTS OF INFORMATION AND STRUCTURE	ACADEMY OF MANAGEMENT JOURNAL			English	Article									UNIV WISCONSIN,GRAD SCH BUSINESS,MADISON,WI 53706; USAF ACAD,COLORADO SPRINGS,CO; UNIV WISCONSIN,CTR STUDY ORG PERFORMANCE,MADISON,WI; UNIV WISCONSIN,GRAD SCH BUSINESS,MADISON,WI							ARGYRIS C, 1972, APPLICABILITY ORGANI; CAMPBELL J, 1958, INFORMATION CONTROL, V1, P334; CHILD J, 1972, SOCIOLOGY, V6, P1, DOI 10.1177/003803857200600101; Conrath D.W, 1967, MANAGE SCI, V13; Crozier Michel, 1964, BUREAUCRATIC PHENOME; DOWNEY HK, 1975, ACAD MANAGE J, V18, P562, DOI 10.2307/255685; Driver M. J, 1965, PSYCHON SCI, V3, P249; DUNCAN RB, 1972, ADMIN SCI QUART, V17, P313, DOI 10.2307/2392145; DUNCAN RB, 1973, HUM RELAT, V26, P273, DOI 10.1177/001872677302600301; Duncan RB, 1974, DECISION SCI, V5, P705, DOI 10.1111/j.1540-5915.1974.tb00649.x; HICKSON DJ, 1971, ADMIN SCI QUART, V16, P216, DOI 10.2307/2391831; Huber GP, 1974, DECISION SCI, V5, P430, DOI 10.1111/j.1540-5915.1974.tb00630.x; LANZETTA JT, 1963, MOTIVATION SOCIAL IN; LONG BH, 1965, J APPL PSYCHOL, V49, P376, DOI 10.1037/h0022476; March J. G., 1958, ORGANIZATIONS; MILLER JG, 1964, COMMUNICATION CLINIC, V1; MILLER JG, 1964, DIS COMMUN, V42, P87; OCONNELL MJ, 1974, THESIS U WISCONSIN; SCHRODER HM, 1967, HUMAN INFORMATION PR; SHANNON CE, 1949, MATHEMATICAL THEORY; SILVERMAN D, 1970, THEORY ORGANIZATIONS; STAGER P, 1967, J PERS SOC PSYCHOL, V5, P152, DOI 10.1037/h0024202; STREUFERT S, 1971, J EXP SOC PSYCHOL, V7, P125, DOI 10.1016/0022-1031(71)90062-X; STREUFERT S, 1967, ONR1 RUTG U TECH REP; THOMPSON JD, 1967, ORGANIZATIONS ACTION; Winer BJ, 1971, STATISTICAL PRINCIPL	26	60	61	0	10	ACAD MANAGEMENT	BRIARCLIFF MANOR	PACE UNIV, PO BOX 3020, 235 ELM RD, BRIARCLIFF MANOR, NY 10510-8020	0001-4273			ACAD MANAGE J	Acad. Manage. J.		1975	18	4					725	740		10.2307/255375				16	Business; Management	Business & Economics	AZ094	WOS:A1975AZ09400006					2019-01-18	
J	THOMAS, KW; KILMANN, RH				THOMAS, KW; KILMANN, RH			SOCIAL DESIRABILITY VARIABLE IN ORGANIZATIONAL RESEARCH - ALTERNATIVE EXPLANATION FOR REPORTED FINDINGS	ACADEMY OF MANAGEMENT JOURNAL			English	Article									UNIV CALIF,GRAD SCH MANAGEMENT,LOS ANGELES,CA 90032; UNIV PITTSBURGH,GRAD SCH BUSINESS,PITTSBURGH,PA 15213							ARAM JD, 1971, ADMIN SCI QUART, V16, P289, DOI 10.2307/2391901; Blake R. R., 1964, MANAGERIAL GRID; BURKE RJ, 1970, ORGAN BEHAV HUM PERF, V5, P393, DOI 10.1016/0030-5073(70)90029-2; CRONBACH LJ, 1967, PROBLEMS HUMAN ASSES; Crowne D. P, 1964, APPROVAL MOTIVE STUD; CROWNE DP, 1960, J CONSULT PSYCHOL, V24, P349, DOI 10.1037/h0047358; Edwards A.L., 1957, SOCIAL DESIRABILITY; EDWARDS AL, 1959, J ABNORM SOC PSYCH, V59, P434, DOI 10.1037/h0041442; EDWARDS AL, 1961, J ABNORM SOC PSYCH, V63, P351, DOI 10.1037/h0045005; EDWARDS AL, 1967, RESPONSE SET PERSONA; Edwards AL, 1953, J APPL PSYCHOL, V37, P90, DOI 10.1037/h0058073; GOLEMBIEWSKI RT, 1973, 33RD P ANN M AC MAN, P534; Hall J., 1969, CONFLICT MANAGEMENT; JACKSON DN, 1967, PROBLEMS HUMAN ASSES; KASL SV, 1962, J SOC ISSUES, V18, P67, DOI 10.1111/j.1540-4560.1962.tb00417.x; Kendall M. G., 1948, RANK CORRELATION MET; LAWRENCE PR, 1967, ADMIN SCI QUART, V12, P1, DOI 10.2307/2391211; LAWRENCE PR, 1967, ORGANIZATION ENVIRON; LIKERT R, 1967, HUMAN ORGANIZATION; Maslow A. H., 1954, MOTIVATION PERSONALI; Osgood C.E., 1957, MEASUREMENT MEANING; RENWICK PA, 1972, THESIS U CALIFORNIA; RYAN SG, 1973, P EASTERN ACADEMY MA; THOMAS KW, 1971, THESIS PURDUE U; THOMAS KW, 1975, HDB INDUSTRIAL ORGAN; THOMAS KW, 1971, UCLA38 GRAD SCH MAN; WINER BJ, 1962, STATISTICAL PRINCIPL	27	54	54	2	8	ACAD MANAGEMENT	BRIARCLIFF MANOR	PACE UNIV, PO BOX 3020, 235 ELM RD, BRIARCLIFF MANOR, NY 10510-8020	0001-4273			ACAD MANAGE J	Acad. Manage. J.		1975	18	4					741	752		10.2307/255376				12	Business; Management	Business & Economics	AZ094	WOS:A1975AZ09400007					2019-01-18	
J	ARONOFF, C				ARONOFF, C			RISE OF BEHAVIORAL PERSPECTIVE IN SELECTED GENERAL MANAGEMENT TEXTBOOKS - EMPIRICAL-INVESTIGATION THROUGH CONTENT-ANALYSIS	ACADEMY OF MANAGEMENT JOURNAL			English	Article									GEORGIA STATE UNIV,ATLANTA,GA 30303							ALBERS H, 1965, PRINCIPLES ORGANIZAT; ALLEN LA, 1958, MANAGEMENT ORGANIZAT; ANDERSON AG, 1942, INDUSTRIAL MANAGEMEN; BALDERSTON CC, 1935, MANAGEMENT ENTERPRIS; BARNARD C., 1938, FUNCTIONS EXECUTIVE; BERELSON B, 1952, CONTENT ANALYSIS COM; BETHEL L, 1945, INDUSTRIAL ORGANIZAT; BORNEMANN AH, 1963, FUNDAMENTALS INDUSTR; BUDD RW, 1967, CONTENT ANALYSIS COM; CARNEY TF, 1972, CONTENT ANALYSIS; CHURCH AH, 1912, AM MACHINIST, V36, P857; CORNELL WB, 1928, INDUSTRIAL ORGANIZAT; Dale E., 1965, MANAGEMENT THEORY PR; DAVIS R, 1940, INDUSTRIAL ORGANIZAT; de Man H., 1929, JOY WORK; DEHASS SA, 1920, BUSINESS ORGANIZATIO; DENNISON HS, 1931, ORGANIZATION ENGINEE; DIEMER H, 1910, FACTORY ORGANIZATION; DONNELLY JH, 1971, FUNDAMENTALS MANAGEM; Drucker P., 1954, PRACTICE MANAGEMENT; DUTTON HP, 1927, BUSINESS ORGANIZATIO; FAYOL H, 1949, GENERAL INDUSTRIAL M; Follett M. P., 1924, CREATIVE EXPERIENCE; Gantt H. L., 1910, WORK WAGES PROFIT; GEORGE CS, 1964, MANAGEMENT INDUSTRY; GERBNER G, 1969, ANALYSIS COMMUNICATI; GILBRETH L, 1914, PSYCHOLOGY MANAGEMEN; HASKINS J, 1961, JOURNALISM QUART, V28, P83; HEYEL C, 1963, ENCYCLOPEDIA MANAGEM; HEYEL C, 1973, ENCYCLOPEDIA MANAGEM; HICKS HG, 1967, MANAGEMENT ORGANIZAT; HOLSTI OR, 1968, HDB SOCIAL PSYCHOLOG; JONES E, 1925, ADMINISTRATION INDUS; KAST FE, 1974, ORGANIZATION MANAGEM; KIMBALL DS, 1939, PRINCIPLES INDUSTRIA; Koontz H., 1955, PRINCIPLES MANAGEMEN; LING CC, 1965, MANAGEMENT PERSONNEL; Mayo E., 1933, HUMAN PROBLEMS INDUS; MCFARLAND DE, 1958, MANAGEMENT PRINCIPLE; Merrill Harwood F., 1960, CLASSICS MANAGEMENT; MESCON MH, 1973, MANAGEMENT ENTERPRIS; MUNSTERBERG H, 1913, PSYCHOLOGY INDUSTRIA; NEWMAN WH, 1950, ADMINISTRATIVE ACTIO; PERSON HS, 1917, B TAYLOR SOC, V3; PERSON HS, 1919, B TAYLOR SOC, V4, P8; PERSON HS, 1924, SCIENTIFIC MANAGEMEN, P226; ROETHLISBERGER FJ, 1939, MANAGEMENT WORKER; SHELDON O, 1923, PHILOSOPHY MANAGEMEN; Taylor F. W., 1911, PRINCIPLES SCIENTIFI; Taylor FW, 1903, SHOP MANAGEMENT; TEAD O, 1918, INSTINCTS INDUSTRY S; Terry G. R., 1960, PRINCIPLES MANAGEMEN; WALTERS JE, 1937, MODERN MANAGEMENT; WESTBROOK FA, 1932, INDUSTRIAL MANAGEMEN; White P., 1926, BUSINESS MANAGEMENT; WHITEHEAD TN, 1938, INDUSTRIAL WORKER; WILLIAMS W, 1925, WHATS WORKERS MIND; Wren D. A., 1972, EVOLUTION MANAGEMENT	58	13	13	0	5	ACAD MANAGEMENT	BRIARCLIFF MANOR	PACE UNIV, PO BOX 3020, 235 ELM RD, BRIARCLIFF MANOR, NY 10510-8020	0001-4273			ACAD MANAGE J	Acad. Manage. J.		1975	18	4					753	768		10.2307/255377				16	Business; Management	Business & Economics	AZ094	WOS:A1975AZ09400008					2019-01-18	
J	KERR, S				KERR, S			FOLLY OF REWARDING A, WHILE HOPING FOR B	ACADEMY OF MANAGEMENT JOURNAL			English	Article									OHIO STATE UNIV,COLL ADMINISTRAT SCI,COLUMBUS,OH 43210							BARNARD CI, 1964, FUNCTIONS EXECUTIVE; BLAU PM, 1962, FORMAL ORGANIZATIONS; FIEDLER FE, 1972, J APPL PSYCHOL, V56, P114, DOI 10.1037/h0032668; GARLAND LH, 1959, AMER J ROENTGENOL RA, V82, P25; KERR S, 1973, AM SOCIOL, V8, P92; KERR S, 1973, ACADEMY MANAGEMENT P, P39; LITWIN GH, 1968, MOTIVATION ORGANIZAT; PERROW C, 1969, READINGS MODERN ORGA; SCHEFF TJ, 1965, MATHEMATICAL EXPLORA; SIMON HA, 1957, ADMINISTRATIVE BEHAV; SWANSON GE, 1972, AM J SOCIOLOGY, V78, P702; Webster E. C., 1964, DECISION MAKING EMPL	12	584	590	4	41	ACAD MANAGEMENT	BRIARCLIFF MANOR	PACE UNIV, PO BOX 3020, 235 ELM RD, BRIARCLIFF MANOR, NY 10510-8020	0001-4273			ACAD MANAGE J	Acad. Manage. J.		1975	18	4					769	783		10.2307/255378				15	Business; Management	Business & Economics	AZ094	WOS:A1975AZ09400009	1235930				2019-01-18	
J	HOFER, CW				HOFER, CW			TOWARD A CONTINGENCY THEORY OF BUSINESS STRATEGY	ACADEMY OF MANAGEMENT JOURNAL			English	Article									NORTHWESTERN UNIV,GRAD SCH MANAGEMENT,EVANSTON,IL 60201							ACKERMAN RW, 1968, ORGANIZATION INVESTM; Aguilar F, 1967, SCANNING BUSINESS EN; AKEL AM, 1974, THESIS NW U; Allison Graham T, 1971, ESSENCE DECISION EXP; ANSOFF HI, 1967, HARVARD BUS REV, V45, P71; Ansoff HI, 1965, CORPORATE STRATEGY; ANSOFF HI, 1969, BUSINESS STRATEGY; ATHREYA MB, 1967, THESIS HARVARD BUSIN; Bower J. L, 1970, MANAGING RESOURCE AL; CARTER EE, 1969, THESIS CARNEGIE MELL; CHEVALIER M, 1972, EUR BUS, P63; COLLINGS R, 1968, THESIS HARVARD BUSIN; EWING DE, 1969, HUMAN SIDE PLANNING; FOX HW, 1973, ATLANTA EC REV, V23, P8; FRUHAN WE, 1972, HARVARD BUS REV, V50, P100; FRUHAN WE, 1972, FIGHT COMPETITIVE AD; GLUECK WF, 1972, P NATIONAL M ACADEMY, P108; GUTMANN PM, 1964, CALIFORNIA MANAGEMEN, V6, P81; HENRY HW, 1967, LONG RANGE PLANNING; KATZ RL, 1970, CASES CONCEPTS CORPO; KEEGAN WJ, 1967, THESIS HARVARD BUSIN; KHANDWALLA P, 1974, NATIONAL M ACADEMY M; KITCHING J, 1967, HARVARD BUS REV, V45, P84; Learned E.P., 1965, BUSINESS POLICY TEXT; LEVITT T, 1965, HARVARD BUS REV, V43, P81; MICHAEL GC, 1971, CALIF MANAGE REV, V14, P88, DOI 10.2307/41164370; Rumelt R. P., 1974, STRATEGY STRUCTURE E; SCHOEFFLER S, 1974, HARVARD BUS REV, V52, P137; SCHOEFFLER S, 1972, PROFIT IMPACT MARKET; SHANK JK, 1973, HARVARD BUSINESS REV, V53, P81; STEINER GA, 1969, STRATEGIC FACTORS BU; STEINER GA, 1972, PITFALLS COMPREHENSI; STEVENSON HH, 1969, THESIS HARVARD BUSIN; TILLES S, 1966, HARVARD BUS REV, V44, P72; UDELL JG, 1972, SUCCESSFUL MARKETING; WARREN EK, 1966, LONG RANGE PLANNING; WASSON C, 1974, DYNAMIC COMPETITIVE; 1970, PERSPECTIVES EXPERIE	38	344	345	4	51	ACAD MANAGEMENT	BRIARCLIFF MANOR	PACE UNIV, PO BOX 3020, 235 ELM RD, BRIARCLIFF MANOR, NY 10510-8020	0001-4273			ACAD MANAGE J	Acad. Manage. J.		1975	18	4					784	810		10.2307/255379				27	Business; Management	Business & Economics	AZ094	WOS:A1975AZ09400010					2019-01-18	
J	ANDERSON, CR; PAINE, FT				ANDERSON, CR; PAINE, FT			MANAGERIAL PERCEPTIONS AND STRATEGIC BEHAVIOR	ACADEMY OF MANAGEMENT JOURNAL			English	Article									UNIV MARYLAND,COLL BUSINESS & MANAGEMENT,COLLEGE PK,MD 20742							ANDERSON C, 1974, NATIONAL ACADEMY MAN; Andrews KR, 1971, CONCEPT CORPORATE ST; BLANDIN JS, 1974, NATIONAL ACADEMY MAN; CHILD J, 1972, SOCIOLOGY, V6, P1, DOI 10.1177/003803857200600101; DEARBORN DC, 1963, PSYCHOLOGY ADMINISTR; DOWNEY HK, 1974, NATIONAL ACADEMY MAN; DUNCAN RB, 1972, ADMIN SCI QUART, V17, P313, DOI 10.2307/2392145; EMERY FE, 1966, READINGS ORGANIZATIO; GALBRAITH JR, 1973, DESIGNING COMPLEX OR; Harrison E. F., 1975, MANAGERIAL DECISION; HOFER CW, 1974, NATIONAL ACADEMY MAN; MACCRIMMON KR, 1974, CONTEMPORARY MANAGEM; MILES RE, 1974, IND RELAT, V13, P244, DOI 10.1111/j.1468-232X.1974.tb00581.x; MINTZBERG H, 1973, CALIF MANAGE REV, V16, P44, DOI 10.2307/41164491; PAINE FT, 1975, ORGANIZATIONAL STRAT; RICHARDS MD, 1973, ACADEMY MANAGEMENT P, P40; SAUNDERS CB, 1973, ACADEMY MANAGEMENT P, P29; SCHOEFFLER S, 1974, HARVARD BUS REV, V52, P137; SCOTT BR, 1971, STAGES CORPORATE D 2; SNOW CC, UNPUBLISHED PAPER; TERREBERRY S, 1968, ADMIN SCI QUART, V12, P590, DOI 10.2307/2391535; VROOM VH, 1973, ORGAN DYN, V1, P66, DOI 10.1016/S0090-2616(73)80024-5; WEICK KE, 1969, SOCIAL PSYCHOLOGY OR; ZALKIND SS, 1962, ADMINISTRATIVE SCIEN, V7, P219	24	154	155	0	14	ACAD MANAGEMENT	BRIARCLIFF MANOR	PACE UNIV, PO BOX 3020, 235 ELM RD, BRIARCLIFF MANOR, NY 10510-8020	0001-4273			ACAD MANAGE J	Acad. Manage. J.		1975	18	4					811	823		10.2307/255380				13	Business; Management	Business & Economics	AZ094	WOS:A1975AZ09400011					2019-01-18	
J	SCHERMERHORN, JR				SCHERMERHORN, JR			DETERMINANTS OF INTERORGANIZATIONAL COOPERATION	ACADEMY OF MANAGEMENT JOURNAL			English	Article									UNIV VERMONT,DEPT BUSINESS ADM,BURLINGTON,VT 05401							AIKEN M, 1968, AM SOCIOL REV, V33, P912, DOI 10.2307/2092683; Aldrich Howard E., 1972, CONFLICT POWER COMPL, P11; BAKER F, 1971, AM J PUBLIC HEALTH N, V61, P130, DOI 10.2105/AJPH.61.1.130; BATY GB, 1971, ADMIN SCI QUART, V16, P430, DOI 10.2307/2391763; BLACK B, 1963, SOCIAL SERVICE REV, V57, P26; BRAITO R, 1972, COMPLEX ORG THEIR EN, P176; CLARK BR, 1965, ADMIN SCI QUART, V10, P224, DOI 10.2307/2391414; EMERY FE, 1967, HUM RELAT, V30, P199; EVAN WM, 1965, MANAGE SCI, V11, pB217; GUEZTKOW H, 1966, STUDIES BEHAVIOR ORG, P13; HALL RH, 1974, 8TH WORLD C SOC INT; LEVINE S, 1961, ADMIN SCI QUART, V5, P583, DOI 10.2307/2390622; LEVINE S, 1963, AM J PUBLIC HEALTH N, V53, P1183, DOI 10.2105/AJPH.53.8.1183; LITWAK E, 1962, ADMIN SCI QUART, V6, P395, DOI 10.2307/2390723; LITWAK E, 1970, ORGANIZATIONS CLIENT; MARRETT CB, 1971, SOCIOL SOC RES, V56, P83; MELCHER A, 1971, ORGANIZATION THEORY, P1; PERROW C, 1961, AM SOCIOL REV, V26, P854, DOI 10.2307/2090570; REID W, 1964, SOC SERV REV, V38, P418, DOI 10.1086/641655; REID W, 1972, INTERORGANIZATIONAL, P84; SCHERMERHORN J, 1974, THESIS NW U; Starkweather D B, 1972, Health Serv Res, V7, P58; THOMPSON JD, 1958, AM SOCIOL REV, V23, P23, DOI 10.2307/2088620; TURK H, 1973, ADMIN SCI QUART, V18, P37, DOI 10.2307/2391926; VANDEVEN A, UNPUBLISHED PAPER; WALTON R, 1972, INTERORGANIZATIONAL, P9; WARREN R, 1972, INTERORGANIZATIONAL, P20; WARREN RL, 1967, ADMIN SCI QUART, V12, P396, DOI 10.2307/2391312	28	105	110	0	12	ACAD MANAGEMENT	BRIARCLIFF MANOR	PACE UNIV, PO BOX 3020, 235 ELM RD, BRIARCLIFF MANOR, NY 10510-8020	0001-4273			ACAD MANAGE J	Acad. Manage. J.		1975	18	4					846	856		10.2307/255382				11	Business; Management	Business & Economics	AZ094	WOS:A1975AZ09400013					2019-01-18	
J	BEDEIAN, AG				BEDEIAN, AG			COMPARISON AND ANALYSIS OF GERMAN AND UNITED-STATES MANAGERIAL ATTITUDES TOWARD LEGITIMACY OF ORGANIZATIONAL INFLUENCE	ACADEMY OF MANAGEMENT JOURNAL			English	Article									AUBURN UNIV,AUBURN,AL 36830			Bedeian, Arthur/A-9066-2008				DAVIS K, 1968, ACAD MANAGE J, V11, P153, DOI 10.2307/255253; FASSBENDER S, 1972, MANAGEMENT INT CONTE; HARTMANN H, 1959, MANAGEMENT INDUSTRIA, P265; HEIZER JH, 1972, SO J BUSINESS, V7, P1; HEIZER JH, 1972, BUSINESS STUDIES, V11, P28; HOCHMUTH MS, 1971, MANAGEMENT TODAY DEC, P120; HOCHMUTH MS, 1971, MANAGEMENT TODAY DEC, P76; KANE EL, 1972, MANAGERIAL STYLES  9, V1, P257; KEMP BW, 1972, THESIS MISSISSIPPI S; KEMP BW, 1973, MANAGEMENT AGE RAPID, P52; KITCHING J, 1974, HARVARD BUS REV, V52, P124; MASSIE JL, 1972, MANAGEMENT INT CONTE; PEARLSTINE N, 1974, WALL STREET J   0508, P27; PEARLSTINE N, 1974, WALL STREET J   1119, P1; SCHEIN EH, 1962, AM J SOCIOL, V67, P682, DOI 10.1086/223233; SCHEIN EH, 1966, J APPL BEHAV SCI, V2, P199, DOI 10.1177/002188636600200207; WILLIAMS LK, 1966, IND RELATIONS, V5, P106	17	2	2	0	2	ACAD MANAGEMENT	BRIARCLIFF MANOR	PACE UNIV, PO BOX 3020, 235 ELM RD, BRIARCLIFF MANOR, NY 10510-8020	0001-4273			ACAD MANAGE J	Acad. Manage. J.		1975	18	4					897	904		10.2307/255390				8	Business; Management	Business & Economics	AZ094	WOS:A1975AZ09400021					2019-01-18	
J	PETER, JP; RYAN, MJ; HUGHES, RE				PETER, JP; RYAN, MJ; HUGHES, RE			MANOVA APPROACH TO DISENTANGLING CORRELATED DEPENDENT VARIABLES IN ORGANIZATIONAL RESEARCH	ACADEMY OF MANAGEMENT JOURNAL			English	Article									INDIANA STATE UNIV,TERRE HAUTE,IN 47809; UNIV ALABAMA,TUSCALOOSA,AL; UNIV WISCONSIN,OSHKOSH,WI							BOCK RD, 1963, TECHNOMETRICS, V5, P95, DOI 10.2307/1266494; BOCK RD, 1968, HDB MEASUREMENT ASSE, P100; FINN JD, 1968, MULTIVARIANCE UNIVAR; GIBSON JL, 1970, ACAD MANAGE J, V13, P411, DOI 10.2307/254831; Herzberg F., 1957, JOB ATTITUDES REV RE; HULIN CL, 1965, J APPL PSYCHOL, V49, P209, DOI 10.1037/h0022164; KEMPTHORNE O, 1952, DESIGN ANALYSIS EXPT; LOCKE EA, 1969, ORGAN BEHAV HUM PERF, V4, P309, DOI 10.1016/0030-5073(69)90013-0; ROY J, 1958, ANN MATH STAT, V29, P1177, DOI 10.1214/aoms/1177706449; SALEH SD, 1964, PERS PSYCHOL, V17, P425, DOI 10.1111/j.1744-6570.1964.tb00077.x; WANOUS JP, 1972, J APPL PSYCHOL, V56, P95, DOI 10.1037/h0032664; Winer BJ, 1971, STATISTICAL PRINCIPL; YULE GV, 1953, INTRO THEORY STATIST	13	3	3	0	2	ACAD MANAGEMENT	BRIARCLIFF MANOR	PACE UNIV, PO BOX 3020, 235 ELM RD, BRIARCLIFF MANOR, NY 10510-8020	0001-4273			ACAD MANAGE J	Acad. Manage. J.		1975	18	4					904	911		10.2307/255391				8	Business; Management	Business & Economics	AZ094	WOS:A1975AZ09400022					2019-01-18	
J	WREGE, CD; PERRONI, AG				WREGE, CD; PERRONI, AG			TAYLORS PIG-TALE - HISTORICAL ANALYSIS OF TAYLORS,FW PIG-IRON EXPERIMENTS	ACADEMY OF MANAGEMENT JOURNAL			English	Article									RUTGERS STATE UNIV,NEW BRUNSWICK,NJ 08903; UNIV ALBERTA,EDMONTON,ALBERTA,CANADA							BLUM ML, 1956, INDUSTRIAL PSYCHOLOG; BROWN RT, 1964, AM CEMETERY      SEP, P39; BURTT HE, 1952, APPLIED PSYCHOLOGY; CLAPP WH, 1938, ENGINEERING MATERIAL; COOKE M, UNPUBLISHED; COPLEY FB, 1923, FREDERICK W TAYLOR F; Dale E., 1965, MANAGEMENT THEORY PR; DONELLY JH, 1971, FUNDAMENTALS MANAGEM; DRURY HB, 1918, HISTORY ECONOMICS PU, V65, P79; DRURY HB, 1918, STUDIES HISTORY ECON, V65; GILLESPIE J, 1899, JUN REP EST PIEC CON; HOBSON T, 1899, IRON AGE        0105, pD21; HOLLINGWORTH HL, 1921, APPLIED PSYCHOLOGY; KAKAR S, 1970, FREDERICK TAYLOR STU; KENT S, 1941, WRITING HISTORY; LANGLOIS CV, 1966, INTRO STUDY HISTORY; MATEAUX CL, 1884, WONDERLAND WORK; MATTHEWS R, 1911, IRON AGE        0406, P820; MATTHEWS R, 1911, SPRINGFIELD REPUBLIC; MAYERHOF H, 1959, PHILOSOPHY HISTORY O; MOORE H, 1939, PSYCHOLOGY BUSINESS; NEVINS A, 1962, GATEWAY HISTORY; SPAETH R, 1919, J INDUSTRIAL HYGIENE, V1, P40; Taylor F., 1911, SHOP MANAGEMENT; Taylor F. W., 1911, PRINCIPLES SCIENTIFI; TEY J, 1954, DAUGHTER TIME; URWICK LF, 1959, ADV MANAGEMENT J JUL, P5; VITELES MS, 1932, INDUSTRIAL PSYCHOLOG; WATTS F, 1921, INTRO PSYCHOLOGICAL; WERNER JH, 1891, CENSUS DIRECTORY NOR; 1899, IRON AGE        0223, P21; 1899, IRON AGE        0202, P30; 1899, IRON AGE        0209, P24; 1903, AM SOC MECHANICAL EN; 1899, IRON AGE        0126, P24; 1899, ENGINEERING NEWS, V42, P257; 1899, IRON AGE        0216, P22; 1903, IRON AGE        0702, P23; 1898, SO BETHLEHEM GLOBE P, V4, P1; 1899, IRON AGE        0302, P25; 1901, MANUAL STATISTICS ST; 1899, IRON AGE        0309, P23	42	42	42	0	3	ACAD MANAGEMENT	BRIARCLIFF MANOR	PACE UNIV, PO BOX 3020, 235 ELM RD, BRIARCLIFF MANOR, NY 10510-8020	0001-4273			ACAD MANAGE J	Acad. Manage. J.		1974	17	1					6	27		10.2307/254767				22	Business; Management	Business & Economics	S4549	WOS:A1974S454900001					2019-01-18	
J	IVANCEVICH, JM; DONNELLY, JH				IVANCEVICH, JM; DONNELLY, JH			STUDY OF ROLE CLARITY AND NEED FOR CLARITY FOR 3 OCCUPATIONAL GROUPS	ACADEMY OF MANAGEMENT JOURNAL			English	Article									UNIV KENTUCKY, LEXINGTON, KY 40506 USA							Argyris C, 1960, UNDERSTANDING ORGANI; BENNIS WG, 1959, ADMIN SCI QUART, V4, P259, DOI 10.2307/2390911; Burns T, 1961, MANAGEMENT INNOVATIO; COHEN A R, 1955, J Abnorm Psychol, V51, P291, DOI 10.1037/h0042761; HOUSE RJ, 1972, ORGANIZATIONAL BEHAV, V7; IVANCEVICH JM, 1972, ORGANIZATIONAL CLIMA; Kahn R. L., 1964, ORGANIZATIONAL STRES; LYONS TF, 1971, ORGANIZATIONAL BEHAV, V6; McGregor D, 1960, HUMAN SIDE ENTERPRIS; Patchen M., 1970, PARTICIPATION ACHIEV; Porter L.W., 1968, MANAGERIAL ATTITUDES; RIZZO JR, 1970, ADMIN SCI QUART, V15, P150, DOI 10.2307/2391486; THOMPSON JD, 1967, ORGANIZATIONS ACTION; WANOUS JP, 1972, J APPL PSYCHOL, V56, P95, DOI 10.1037/h0032664	14	73	73	0	5	ACAD MANAGEMENT	BRIARCLIFF MANOR	PACE UNIV, PO BOX 3020, 235 ELM RD, BRIARCLIFF MANOR, NY 10510-8020 USA	0001-4273	1948-0989		ACAD MANAGE J	Acad. Manage. J.		1974	17	1					28	36		10.2307/254768				9	Business; Management	Business & Economics	S4549	WOS:A1974S454900002					2019-01-18	
J	LARSON, LL; ROWLAND, KM				LARSON, LL; ROWLAND, KM			LEADERSHIP STYLE AND COGNITIVE COMPLEXITY	ACADEMY OF MANAGEMENT JOURNAL			English	Article									SO ILLINOIS,UNIV,DEPT ADM SCI,CARBONDALE,IL 62901; UNIV ILLINOIS,URBANA,IL							BASS AR, 1964, PERSONALITY CORRELAT; BIERI J, 1961, FUNCTIONS VARIED EXP; BURKE WW, 1965, J PERS, V33, P60, DOI 10.1111/j.1467-6494.1965.tb01372.x; CROCKETT WH, 1965, PROGR EXPTL PERSONAL; Fiedler F. E., 1967, THEORY LEADERSHIP EF; FISHBEIN M, 1965, SOME DETERMINANTS IN; GARDNER R, 1962, PSYCHOLOGICAL MONOGR, V66; GOLB EF, 1955, NOTE PSYCHOLOGICAL A; HILL W, 1969, ACADEMY MANAGEMENT P; KELLY GA, 1955, PSYCHOLOGY PERSONAL, V2; MITCHELL TR, 1970, J PERS SOC PSYCHOL, V16, P166, DOI 10.1037/h0029861; MITCHELL TR, 1969, THESIS U ILLINOIS; POSTHUMA AB, 1970, NORMATIVE DATA LEAST; SCHRODER HM, 1967, HUMAN INFORMATION PR; SCOTT WA, 1962, SOCIOMETRY, V25, P405, DOI 10.2307/2785779; SCOTT WA, 1963, MOTIVATION SOCIAL IN; STEINER ID, 1959, INTERPERSONAL ORIENT; TRIPODI T, 1963, PSYCHOL REP, V13, P26, DOI 10.2466/pr0.1963.13.1.26; VANNOY JS, 1965, J PERS SOC PSYCHOL, V2, P385, DOI 10.1037/h0022270; VANNOY JS, 1964, THESIS U ILLINOIS; WEISSENBERG P, 1966, J APPL PSYCHOL, V50, P392, DOI 10.1037/h0023854	21	19	19	0	14	ACAD MANAGEMENT	BRIARCLIFF MANOR	PACE UNIV, PO BOX 3020, 235 ELM RD, BRIARCLIFF MANOR, NY 10510-8020	0001-4273			ACAD MANAGE J	Acad. Manage. J.		1974	17	1					37	45		10.2307/254769				9	Business; Management	Business & Economics	S4549	WOS:A1974S454900003					2019-01-18	
J	GALLAGHER, CA				GALLAGHER, CA			PERCEPTIONS OF VALUE OF A MANAGEMENT INFORMATION SYSTEM	ACADEMY OF MANAGEMENT JOURNAL			English	Article									FLORIDA TECHNOLOG UNIV, ORLANDO, FL 32800 USA							ACKOFF RL, 1958, MANAGE SCI, V4, P218, DOI 10.1287/mnsc.4.3.218; FELTHAM GA, 1968, ACCOUNT REV, V43, P684; FELTHAM GA, 1967, THESIS U CALIFORNIA; GREEN PE, 1967, EXPTS VALUE INFORMAT; GREENRIDGE CD, 1967, THESIS OHIO STATE U; Gregory R., 1960, AUTOMATIC DATA PROCE; HASELEY AF, 1966, THESIS PURDUE U; MARSCHAK J, 1968, AM ECON REV, V58, P1; MOCK TJ, 1969, THESIS U CALIFORNIA; MOCK TJ, 1971, ACCOUNT REV, V46, P765; Osgood C.E., 1957, MEASUREMENT MEANING; STIGLER GJ, 1961, J POLIT ECON, V69, P213, DOI 10.1086/258464; SWANSON CV, 1971, EVALUATING QUALITY M; WILSON CC, 1967, THESIS OHIO STATE U	14	96	96	0	7	ACAD MANAGEMENT	BRIARCLIFF MANOR	PACE UNIV, PO BOX 3020, 235 ELM RD, BRIARCLIFF MANOR, NY 10510-8020 USA	0001-4273	1948-0989		ACAD MANAGE J	Acad. Manage. J.		1974	17	1					46	55		10.2307/254770				10	Business; Management	Business & Economics	S4549	WOS:A1974S454900004					2019-01-18	
J	KELLER, RT; SLOCUM, JW; SUSMAN, GI				KELLER, RT; SLOCUM, JW; SUSMAN, GI			UNCERTAINTY AND TYPE OF MANAGEMENT SYSTEM IN CONTINUOUS PROCESS ORGANIZATIONS	ACADEMY OF MANAGEMENT JOURNAL			English	Article									UNIV HOUSTON,HOUSTON,TX 77004; PENN STATE UNIV,UNIVERSITY PK,PA							Burns T, 1961, MANAGEMENT INNOVATIO; Coch L, 1948, HUM RELAT, V1, P512, DOI 10.1177/001872674800100408; DUNCAN RB, 1971, 5471 NW U GRAD SCH M; DUNCAN RB, 1971, THESIS YALE U; GALBRAITH JR, 1970, STUDIES ORGANIZATION; GULICK L, 1937, PAPERS SCIENCE PUBLI; HALL RH, 1963, AM J SOCIOL, V69, P32, DOI 10.1086/223508; HALL RH, 1961, THESIS OHIO STATE U; HARVEY E, 1968, AM SOCIOL REV, V33, P247, DOI 10.2307/2092391; HICKSON DJ, 1969, ADMIN SCI QUART, V14, P378, DOI 10.2307/2391134; HUNT RG, 1970, ACAD MANAGE J, V13, P235, DOI 10.2307/254962; LAWRENCE PR, 1967, ORGANIZATION ENVIRON; Mayo Elton, 1945, SOCIAL PROBLEMS INDU; PERROW C, 1967, AM SOCIOL REV, V32, P194, DOI 10.2307/2091811; ROETHLISBERGER FJ, 1939, MANAGEMENT WORKER; Siegel S., 1956, NONPARAMETRIC STATIS; SUSMAN GI, 1970, HUM RELAT, V23, P567; Taylor F. W., 1911, PRINCIPLES SCIENTIFI; TAYLOR JC, 1971, HUM RELAT, V24, P105, DOI 10.1177/001872677102400201; THOMPSON JD, 1967, ORGANIZATIONS ACTION; WEBER M, 1947, THEORY SOCIAL ECONOM; WOODWARD J, 1965, INDUSTRIAL ORGANIZAT; Zwerman W.L., 1970, NEW PERSPECTIVES ORG	23	22	22	0	3	ACAD MANAGEMENT	BRIARCLIFF MANOR	PACE UNIV, PO BOX 3020, 235 ELM RD, BRIARCLIFF MANOR, NY 10510-8020	0001-4273			ACAD MANAGE J	Acad. Manage. J.		1974	17	1					56	68		10.2307/254771				13	Business; Management	Business & Economics	S4549	WOS:A1974S454900005					2019-01-18	
J	ORGAN, DW; GREENE, CN				ORGAN, DW; GREENE, CN			PERCEIVED PURPOSEFULNESS OF JOB BEHAVIOR - ANTECEDENTS AND CONSEQUENCES	ACADEMY OF MANAGEMENT JOURNAL			English	Article									INDIANA UNIV,GRAD SCH BUS,BLOOMINGTON,IN 47401							Adorno T. W., 1950, AUTHORITARIAN PERSON; Blalock H.M., 1964, CAUSAL INFERENCES NO; BREWER MB, 1970, SOCIOMETRY, V33, P1, DOI 10.2307/2786268; COHEN AR, 1959, STUDIES SOCIAL POWER; GREENE CN, IN PRESS; HARMAN HH, 1960, MODERN FACTOR ANALYS; HOUSE RJ, 1971, ADMIN SCI QUART, V16, P321, DOI 10.2307/2391905; Kahn R. L., 1964, ORGANIZATIONAL STRES; LAWLER EE, 1970, J APPL PSYCHOL, V54, P305, DOI 10.1037/h0029692; LAWLER EE, 1969, PERS PSYCHOL, V22, P426, DOI 10.1111/j.1744-6570.1969.tb00343.x; LAWLER EE, 1972, ORGANIZATIONAL BEHAV, V7; LODAHL JM, 1965, J APPLIED PSYCHOL, V49, P24; LYONS TF, 1971, ORGANIZATIONAL BEHAV, V6; Nunnally JC, 1967, PSYCHOMETRIC THEORY; RIZZO JR, 1970, ADMIN SCI QUART, V15, P150, DOI 10.2307/2391486; ROTTER JB, 1966, PSYCHOLOGICAL MONOGR, V80; SEEMAN H, 1963, AM J SOCIOLOGY, V69, P270; SMOCK CD, 1954, J ABNORMAL SOCIAL PS, V50, P177; STOGDILL RM, 1965, MANUAL JOB DESCRIPTI; VALECHA GK, 1972, 80TH P ANN C AM PSYC, P455; WEICK KE, 1969, SOCIAL PSYCHOLOGY OR	21	38	38	0	6	ACAD MANAGEMENT	BRIARCLIFF MANOR	PACE UNIV, PO BOX 3020, 235 ELM RD, BRIARCLIFF MANOR, NY 10510-8020	0001-4273			ACAD MANAGE J	Acad. Manage. J.		1974	17	1					69	78		10.2307/254772				10	Business; Management	Business & Economics	S4549	WOS:A1974S454900006					2019-01-18	
J	ONDRACK, DA				ONDRACK, DA			DEFENSE MECHANISMS AND HERZBERG THEORY - ALTERNATE TEST	ACADEMY OF MANAGEMENT JOURNAL			English	Article									UNIV TORONTO,FAC MANAGEMENT STUDIES,TORONTO,ONTARIO,CANADA							ANASTASI A, 1968, PSYCHOLOGICAL TESTIN; BOBBITT HR, 1972, J APPL PSYCHOL, V56, P299, DOI 10.1037/h0033087; BOBBITT HR, 1972, J APPL PSYCHOL, V56, P24, DOI 10.1037/h0032133; DUNNETTE MD, 1967, ORGAN BEHAV HUM PERF, V2, P143, DOI 10.1016/0030-5073(67)90027-X; EVANS MG, 1971, STUD PERS PSYCHOL, V3, P45; Evans MG, 1970, J BUS ADMIN, V2, P17; HARDIN E, 1965, J APPL PSYCHOL, V49, P363, DOI 10.1037/h0022521; HERZBERG F, 1968, HARVARD BUS REV, V46, P53; Herzberg F, 1959, MOTIVATION WORK; HOUSE RJ, 1967, PERS PSYCHOL, V20, P369, DOI 10.1111/j.1744-6570.1967.tb02440.x; KILPATRICK FP, 1967, IMAGE FEDERAL SERVIC; KING N, 1970, PSYCHOL BULL, V74, P18, DOI 10.1037/h0029444; LINDZEY G, 1961, PROJECTIVE TECHNIQUE; LOCKE EA, 1972, J APPL PSYCHOL, V56, P297, DOI 10.1037/h0033096; LYKKEN DT, 1968, PSYCHOL BULL, V70, P151, DOI 10.1037/h0026141; MINER JB, 1971, ADMIN SCI QUART, V16, P351, DOI 10.2307/2391907; QUINN RP, 1967, ANNU REV PSYCHOL, V18, P437, DOI 10.1146/annurev.ps.18.020167.002253; SALEH S, 1967, J APPLIED PSYCHOLOGY, V48, P310; SCHEIN EH, 1967, ADMIN SCI QUART, V11, P601, DOI 10.2307/2391078; VROOM VH, 1961, ANNU REV PSYCHOL, V12, P413, DOI 10.1146/annurev.ps.12.020161.002213; VROOM VH, 1964, WORK MOTIVATION; WALL TD, 1971, BRIT J SOC CLIN PSYC, V10, P123, DOI 10.1111/j.2044-8260.1971.tb00724.x; WALL TD, 1972, BRIT J SOC CLIN PSYC, V11, P79, DOI 10.1111/j.2044-8260.1972.tb00782.x; WERNIMONT PF, 1966, J APPL PSYCHOL, V50, P41, DOI 10.1037/h0022938	24	3	3	0	2	ACAD MANAGEMENT	BRIARCLIFF MANOR	PACE UNIV, PO BOX 3020, 235 ELM RD, BRIARCLIFF MANOR, NY 10510-8020	0001-4273			ACAD MANAGE J	Acad. Manage. J.		1974	17	1					79	89		10.2307/254773				11	Business; Management	Business & Economics	S4549	WOS:A1974S454900007					2019-01-18	
J	CHENTNIK, CG; WEATHERF.PA				CHENTNIK, CG; WEATHERF.PA			TEACHING MANAGEMENT BY MANAGEMENT EXCEPTION	ACADEMY OF MANAGEMENT JOURNAL			English	Article									FLORIDA STATE UNIV,TALLAHASSEE,FL 32300; EMBRY RIDDLE AERNAUT UNIV,DAYTONA BEACH,FL							BORN DG, 1971, J EXP EDUC, V40, P6, DOI 10.1080/00220973.1971.11011296; BRIGGS LJ, 1945, J EXPTL EDUCATION, V14, P101; CAMPBELL DT, 1963, HDB RESEARCH TEACHIN, pCH5; DECECCO JP, 1968, PSYCHOLOGY LEARNING; DUNN WL, 1972, IEEE T EDUCATION, VE 15, P141; FERSTER CB, 1968, PSYCHOL REC, V18, P521, DOI 10.1007/BF03393802; FLAMMER GH, 1971, ENG EDUC, V61, P511; HARRISBERGER L, 1971, ENG EDUC, V61, P508; HESS JH, SELECTED BIBLIOGRAPH; HOBEROCK LL, 1971, ENG EDUC, V61, P506; HOBEROCK LL, 1972, IEEE T EDUCATION, VE 15, P25; HODGE BJ, 1970, MANAGEMENT ORGANIZAT; HUBBARD CL, 1972, DECISION SCIENCES, V3; KELLER FS, 1968, J APPL BEHAV ANAL, V1, P79, DOI 10.1901/jaba.1968.1-79; KELLER FS, 1966, CONTROL HUMAN BEHAVI; KOEN BV, 1971, ENG EDUC, V61, P504; KOEN BV, 1971, IEEE T EDUCATION, VE 14, P13; MCMICHAE.JS, 1969, J APPL BEHAV ANAL, V2, P79, DOI 10.1901/jaba.1969.2-79; MITZEL HE, 1970, ENG EDUC, V60, P749; MOORE JW, 1969, PSYCHOL REP, V25, P887, DOI 10.2466/pr0.1969.25.3.887; SEARS JT, 1971, ENG EDUC, V61, P515	21	2	2	0	1	ACAD MANAGEMENT	BRIARCLIFF MANOR	PACE UNIV, PO BOX 3020, 235 ELM RD, BRIARCLIFF MANOR, NY 10510-8020	0001-4273			ACAD MANAGE J	Acad. Manage. J.		1974	17	1					90	100		10.2307/254774				11	Business; Management	Business & Economics	S4549	WOS:A1974S454900008					2019-01-18	
J	BEDEIAN, AG				BEDEIAN, AG			HISTORICAL REVIEW OF EFFORTS IN AREA OF MANAGEMENT SEMANTICS	ACADEMY OF MANAGEMENT JOURNAL			English	Article									BOSTON UNIV,OVERSEAS GRAD PROG,BOSTON,MA 02215			Bedeian, Arthur/A-9066-2008				ALLEN LA, 1971, TAXONOMY MANAGEMENT; ALLEN LA, 1958, MANAGEMENT ORGANIZAT; ALLEN LA, 1968, COMMON VOCABULARY PR; ALLEN LA, 1964, MANAGEMENT PROFESSIO; BEDEIAN AG, 1973, THESIS MISSISSIPPI S; BENGE EJ, 1961, FACTORY, V119, P209; BRECH EFL, 1965, ORGANISATION FRAMEWO; *BRIT I MAN, 1954, GLOSSARY MANAGEMENT; BROWN A, 1947, ORGANIZATION INDUSTR; BROWN AM, 1945, ORGANIZATION FORMULA; BROWN W, 1960, EXPLORATION MANAGEME; Brown W., 1971, ORGANIZATION; COOKE ML, 1919, B TAYLOR SOC, V4, P47; DALE E, 1969, MANAGEMENT THEORY PR; DAVIS RC, 1957, INDUSTRIAL ORGANIZAT; DONNELLY JH, 1971, FUNDAMENTALS MANAGEM; ETTINGER KE, 1960, MANAGEMENT GLOSSARY; EWING DW, 1955, HARVARD BUSINESS REV, V30, P149; FOX RM, 1928, LABOUR MAGAZINE, V7, P163; *GEN INT COMM SCIE, 1949, CIOS MAN, P15; *GEN INT MAN I, 1930, RAPPORT INTERIMAIDE; *GERM EC ORD EST R, 1933, WIRTSCHAFT WIRTSCHAF; HAAN HV, 1938, 7 P MAN C, V1, P97; JOHANNSON H, 1968, MANAGEMENT GLOSSARY; JONES CR, 1949, SCOPE LONDON, V7, P74; KOONTZ H, 1962, HARVARD BUS REV, V40, P24; KOONTZ H, 1964, TOWARD UNIFIED THEOR; KOONTZ H, 1961, J ACAD MANAGEMENT, V4, P174; KOONTZ H, 1964, PRINCIPLES MANAGEMEN; LAUFER AC, 1968, ACADEMY MANAGEMENT J, V2, P435; LEE J, 1928, DICTIONARY INDUSTRIA, V1; LEE J, 1929, DICTIONARY INDUSTRIA, V2; LINDEMANN AJ, 1971, PERSONAL LETT   0729; LINDEMANN AJ, 1966, DICTIONARY MANAGEMEN; MCDONOUGH AM, 1963, INFORMATION ECONOMIC; *MELB I IND MAN, 1948, DEFINITIONS TERMS US; *ORG COMM IND CHAM, 1934, DEFINITIONS QUELQUES; *ORG FRANC COM NAT, 1926, DICTIONNAIRE ORGANIS; *ORG SCIENT TRAV B, 1937, DEFINITIONS ADOPTEES; RODGERS W, 1949, STANDARD TERMINOLOGY; ROETHLISBERGER FJ, 1939, MANAGEMENT WORKER; SCHULTZE JW, 1919, B TAYLOR SOC, V4, P3; TEAD O, 1928, PROBLEM TERMINOLOGY; URWICK L, 1965, CALIF MANAGE REV, V8, P93, DOI 10.2307/41165664; Urwick L. F, 1956, GOLDEN BOOK MANAGEME; URWICK LF, 1929, ENCYCLOPAEDIA BRITAN, V14; URWICK LF, 1948, BRIT MANAGEMENT REV, V7, P15; URWICK LF, 1930, FACTORY INDUSTRY MAN, V81, P287; URWICK LF, 1928, LABOUR MAGAZINE LOND, V7, P259; VANHAAN H, 1938, INT LABOUR REV, V37, P429; VANHAAN H, 1937, INT LABOUR REV, V36, P250; *WORLD EC CONF, 1927, CEI 44 DOC; 1948, BRIT MANAGEMENT REV, V7, P4; 1964, NEW YORK TIMES  0106, P55; 1954, MANAGER, V22, P695; 1936, NORMALISOROVANE NAZV; 1963, BUSINESS WEEK   0216, P140; 1925, AM MANAGEMENT REV, V14, P306	58	0	1	0	2	ACAD MANAGEMENT	BRIARCLIFF MANOR	PACE UNIV, PO BOX 3020, 235 ELM RD, BRIARCLIFF MANOR, NY 10510-8020	0001-4273			ACAD MANAGE J	Acad. Manage. J.		1974	17	1					101	114		10.2307/254775				14	Business; Management	Business & Economics	S4549	WOS:A1974S454900009					2019-01-18	
J	HOWARD, A				HOWARD, A			ASSESSMENT OF ASSESSMENT CENTERS	ACADEMY OF MANAGEMENT JOURNAL			English	Article									UNIV MARYLAND,COLLEGE PK,MD 20742; LF MCMANUS CO INC,WORCESTED,MA							ACKER SR, 1970, CAN WE SHARPEN OUR M; BARTLETT CJ, 1966, J COUNS PSYCHOL, V13, P267, DOI 10.1037/h0023710; BENTZ VJ, 1971, 79 ANN CONV AM PSYCH; BRAY DW, 1968, J APPL PSYCHOL, V52, P36, DOI 10.1037/h0025353; BRAY DW, 1972, ANNUAL REV PSYCHOLOG; BRAY DW, 1966, PSYCHOLOGICAL MONOGR, V80; BYHAM WC, 1970, HARVARD BUS REV, V48, P150; BYHAM WC, 1970, STUDIES PERSONNEL PS, V2; BYHAM WC, 1971, TRAINING DEV J   DEC, P10; CAMPBELL DT, 1959, PSYCHOL BULL, V56, P81, DOI 10.1037/h0046016; CAMPBELL JP, 1970, MANAGERIAL BEHAVIOR; CAMPBELL RJ, 1967, PERSONNEL ADMINISTRA, V30; CARLETON FO, 1970, 78 P ANN CONV AM PSY; CRONBACH LJ, 1970, ESSENTIALS PSYCHOLOG; DICOSTANZO F, 1970, TRAINING DEV, P12; DODD WE, 1970, PREDICTION MANAGEMEN; DODD WE, 1971, 79 ANN CONV AM PSYCH; DODD WE, 1970, 78TH P ANN CONV AM P, P569; DUNNETTE MD, 1971, ADV PSYCHOLOGICAL AS, V2; FINKLE RD, IN PRESS; FINLEY RM, 1970, 78 P ANN CONV AM PSY; Ghiselli EE., 1966, VALIDITY OCCUPATIONA; GRANT DL, 1967, J APPL PSYCHOL, V51, P226, DOI 10.1037/h0024661; GRANT DL, 1969, J APPL PSYCHOL, V53, P24, DOI 10.1037/h0026846; GREENWOOD JM, 1967, J APPL PSYCHOL, V51, P101, DOI 10.1037/h0024317; GUION RM, 1965, PERS PSYCHOL, V18, P135, DOI 10.1111/j.1744-6570.1965.tb00273.x; HINRICHS JR, 1969, J APPL PSYCHOL, V53, P425, DOI 10.1037/h0028101; JESWALD TA, 1971, INDUSTRIAL PSYCHOLOG, V9, P12; KELLY EL, 1951, PREDICTION PERFORMAN; KINSLINGER HJ, 1966, PSYCHOL BULL, V66, P134, DOI 10.1037/h0023609; KORMAN AK, 1968, PERS PSYCHOL, V21, P295, DOI 10.1111/j.1744-6570.1968.tb02032.x; KRAUT AI, 1972, J APPL PSYCHOL, V56, P124, DOI 10.1037/h0032669; KRAUT AI, IN PRESS; Mayfield E. C., 1964, PERS PSYCHOL, V17, P239, DOI 10.1111/j.1744-6570.1964.tb00065.x; MCCONNELL JJ, 1972, TRAIN DEV J, P6; MEEHL PE, 1954, CLINICAL VERSUS STAT; MEYER HH, 1970, PERS PSYCHOL, V23, P297, DOI 10.1111/j.1744-6570.1970.tb01657.x; MOSES J, IN PRESS; *NY OFF STRAT SERV, 1948, ASSESSMENT MEN; SAWYER J, 1966, PSYCHOL BULL, V66, P178, DOI 10.1037/h0023624; TAFT R, 1959, PSYCHOL BULL, V56, P333, DOI 10.1037/h0044077; THOMSON HA, 1970, J APPL PSYCHOL, V54, P496, DOI 10.1037/h0030141; WERNIMONT PF, 1968, J APPL PSYCHOL, V52, P372, DOI 10.1037/h0026244; WOLLOWIC.HB, 1969, J APPL PSYCHOL, V53, P348, DOI 10.1037/h0028102	44	54	54	0	15	ACAD MANAGEMENT	BRIARCLIFF MANOR	PACE UNIV, PO BOX 3020, 235 ELM RD, BRIARCLIFF MANOR, NY 10510-8020	0001-4273			ACAD MANAGE J	Acad. Manage. J.		1974	17	1					115	134		10.2307/254776				20	Business; Management	Business & Economics	S4549	WOS:A1974S454900010					2019-01-18	
J	HAY, R; GRAY, E				HAY, R; GRAY, E			SOCIAL RESPONSIBILITIES OF BUSINESS MANAGERS	ACADEMY OF MANAGEMENT JOURNAL			English	Article									UNIV ARKANSAS,MANAGEMENT DEPT,FAYETTEVILLE,AR 72701; LOUISIANA STATE UNIV,BATON ROUGE,LA							BOWEN HR, 1971, ISSUES BUSINESS SOC; Friedman M., 1970, NY TIMES MAGAZINE, P122; Means G, 1932, MODERN CORPORATION P; *NY COMM EC DEV, 1971, SOCIAL RESPONSIBILIT; Steiner G. A., 1971, BUSINESS SOC	5	43	43	1	3	ACAD MANAGEMENT	BRIARCLIFF MANOR	PACE UNIV, PO BOX 3020, 235 ELM RD, BRIARCLIFF MANOR, NY 10510-8020	0001-4273			ACAD MANAGE J	Acad. Manage. J.		1974	17	1					135	143		10.2307/254777				9	Business; Management	Business & Economics	S4549	WOS:A1974S454900011					2019-01-18	
J	ROBERTS, KH; OREILLY, CA				ROBERTS, KH; OREILLY, CA			FAILURES IN UPWARD COMMUNICATION IN ORGANIZATIONS - 3 POSSIBLE CULPRITS	ACADEMY OF MANAGEMENT JOURNAL			English	Article									UNIV CALIF,SCH BUSINESS ADM,BERKELEY,CA 94720							ALKIRE AA, 1968, J PERS SOC PSYCHOL, V9, P301, DOI 10.1037/h0026089; COHEN A, 1958, SOC REV, V15, P342; COLLINS BE, 1968, HDB SOCIAL PSYCHOLOG, V4; DANCE FEX, 1970, J COMMUN, V20, P201, DOI 10.1111/j.1460-2466.1970.tb00877.x; FESTINGER L, 1950, PSYCHOL REV, V57, P217; FRIEDLAN.F, 1970, J APPL BEHAV SCI, V6, P387, DOI 10.1177/002188637000600401; GIBB JR, 1964, T GROUP THEORY LABOR; GIFFIN K, 1967, PSYCHOL BULL, V68, P104, DOI 10.1037/h0024833; GUETZKOW H, 1965, HDB ORGANIZATIONS; INDIK BP, 1961, PERS PSYCHOL, V14, P357, DOI 10.1111/j.1744-6570.1961.tb01242.x; Kelley HH, 1951, HUM RELAT, V4, P39, DOI 10.1177/001872675100400102; Kunin T, 1955, PERS PSYCHOL, V8, P65, DOI 10.1111/j.1744-6570.1955.tb01189.x; LAWLER EE, 1968, J APPL PSYCHOL, V52, P432, DOI 10.1037/h0026504; LOOMIS JL, 1959, HUM RELAT, V12, P305, DOI 10.1177/001872675901200402; MELLINGER GD, 1956, J ABNORM SOC PSYCH, V52, P304, DOI 10.1037/h0048100; OREILLY CA, IN PRESS; PORTER LW, HDB INDUSTRIAL ORGAN; READ WH, 1962, HUM RELAT, V15, P3, DOI 10.1177/001872676201500101; ROBERTS KD, IN PRESS; THAYER L., 1967, HUMAN COMMUNICATION; WAGER LW, 1972, HUM RELAT, V25, P307, DOI 10.1177/001872677202500402; WATSON DL, 1965, SOCIOMETRY, V28, P322, DOI 10.2307/2786029; WIECK K, 1965, HDB ORGANIZATIONS; ZAND DE, 1972, ADMIN SCI QUART, V17, P229, DOI 10.2307/2393957	24	129	133	1	13	ACAD MANAGEMENT	BRIARCLIFF MANOR	PACE UNIV, PO BOX 3020, 235 ELM RD, BRIARCLIFF MANOR, NY 10510-8020	0001-4273			ACAD MANAGE J	Acad. Manage. J.		1974	17	2					205	215		10.2307/254974				11	Business; Management	Business & Economics	T1421	WOS:A1974T142100001					2019-01-18	
J	THAMHAIN, HJ; GEMMILL, GR				THAMHAIN, HJ; GEMMILL, GR			INFLUENCE STYLES OF PROJECT MANAGERS - SOME PROJECT PERFORMANCE CORRELATES	ACADEMY OF MANAGEMENT JOURNAL			English	Article									SYRACUSE UNIV,SCH MANAGEMENT,SYRACUSE,NY 13210; GE,SYRACUSE,NY							BACHMAN JG, 1968, CONTROL ORGANIZATION; French J.R.P, 1959, STUDIES SOCIAL POWER; GEMMILL G, 1970, SLOAN MANAGE REV, V12, P15; GOODMAN RA, 1967, ACAD MANAGE J, V10, P395, DOI 10.2307/255272; HODGETTS RM, 1968, ACAD MANAGE J, V11, P211, DOI 10.2307/255258; Ivancevich J. M., 1970, PERS PSYCHOL, V23, P539; PATCHEN M, 1965, QUESTIONNAIRE MEASUR; PAUL WJ, 1969, HARVARD BUS REV, V47, P61	8	57	57	0	4	ACAD MANAGEMENT	BRIARCLIFF MANOR	PACE UNIV, PO BOX 3020, 235 ELM RD, BRIARCLIFF MANOR, NY 10510-8020	0001-4273			ACAD MANAGE J	Acad. Manage. J.		1974	17	2					216	224		10.2307/254975				9	Business; Management	Business & Economics	T1421	WOS:A1974T142100002					2019-01-18	
J	BARTOL, KM				BARTOL, KM			MALE VERSUS FEMALE LEADERS - EFFECT OF LEADER NEED FOR DOMINANCE ON FOLLOWER SATISFACTION	ACADEMY OF MANAGEMENT JOURNAL			English	Article									UNIV MASSACHUSETTS, AMHERST, MA 01002 USA							CRONBACH LJ, 1951, PSYCHOMETRIKA, V16, P297; HARRIS L, 1972, 1972 VIRGINIA SLIMS; HEDGES JN, 1970, MON LABOR REV, V93, P19; HENSHAW RC, 1966, EXECUTIVE GAME; KIRK R, 1968, EXPTL DESIGN PROCEDU; MANN RD, 1959, PSYCHOL BULL, V56, P241, DOI 10.1037/h0044587; MEGARGEE EI, 1966, J APPL PSYCHOL, V50, P292, DOI 10.1037/h0023567; MEGARGEE EI, 1969, J APPL PSYCHOL, V53, P377, DOI 10.1037/h0028093; VROOM VH, 1964, WORK MOTIVATION; WINER BJ, 1962, STATISTICAL PRINCIPL	10	37	37	2	6	ACAD MANAGEMENT	BRIARCLIFF MANOR	PACE UNIV, PO BOX 3020, 235 ELM RD, BRIARCLIFF MANOR, NY 10510-8020 USA	0001-4273			ACAD MANAGE J	Acad. Manage. J.		1974	17	2					225	233		10.2307/254976				9	Business; Management	Business & Economics	T1421	WOS:A1974T142100003					2019-01-18	
J	HARRISON, F				HARRISON, F			MANAGEMENT OF SCIENTISTS - DETERMINANTS OF PERCEIVED ROLE PERFORMANCE	ACADEMY OF MANAGEMENT JOURNAL			English	Article									UNIV PUGET SOUND,TACOMA,WA 98416							Burns T, 1961, MANAGEMENT INNOVATIO; HOUSE RJ, 1971, ADMIN SCI QUART, V16, P19, DOI 10.2307/2391283; KORNHAUSER W, 1963, SCIENTISTS INDUSTRY; LAPORTE T, 1963, THESIS STANFORD U; LIPETZ BA, 1965, MEASUREMENT EFFICIEN; Porter L.W., 1968, MANAGERIAL ATTITUDES; QUINN J, 1959, YARDSTICKS INDUSTRIA; SAXBERG BO, 1968, MANAG SCI        APR, pB473; SMITH CG, 1970, ADMIN SCI QUART, V15, P203, DOI 10.2307/2391491	9	12	13	0	1	ACAD MANAGEMENT	BRIARCLIFF MANOR	PACE UNIV, PO BOX 3020, 235 ELM RD, BRIARCLIFF MANOR, NY 10510-8020	0001-4273			ACAD MANAGE J	Acad. Manage. J.		1974	17	2					234	241		10.2307/254977				8	Business; Management	Business & Economics	T1421	WOS:A1974T142100004					2019-01-18	
J	SCOTT, WG				SCOTT, WG			ORGANIZATION THEORY - REASSESSMENT	ACADEMY OF MANAGEMENT JOURNAL			English	Article									UNIV WASHINGTON,GRAD SCH BUSINESS,SEATTLE,WA 98105							ARGYRIS C, 1973, ADMIN SCI QUART, V18, P141, DOI 10.2307/2392060; BABBAGE C, 1835, ECONOMY MACHINERY MA; BARNARD C., 1938, FUNCTIONS EXECUTIVE; Barzun J, 1959, HOUSE INTELLECT; Bennis W. G., 1968, TEMPORARY SOC; BROBST DA, 1973, 820 GEOL SURV PROF P; Burnham J, 1941, MANAGERIAL REVOLUTIO; CASSIER E, 1953, ESSAY MAN; Dahrendorf R, 1959, CLASS CLASS CONFLICT; Drucker PF, 1950, NEW SOC ANATOMY INDU; Ellul J., 1964, TECHNOLOGICAL SOC; ELLUL J, 1967, PRESENCE KINGDOM; FRENCH WL, 1973, ORGANIZATION DEVELOP; GEORGIOU P, 1973, ADMIN SCI QUART, V18, P291, DOI 10.2307/2391665; Halberstam David, 1972, BEST BRIGHTEST; HEILBRONER RL, 1959, FUTURE HISTORY; Kahn H., 1967, THE YEAR 2000; KAST FE, 1973, CONTINGENCY VIEWS OR; Kuhn T.S., 1962, STRUCTURE SCIENTIFIC; LAWRENCE PR, 1967, ORGANIZATION ENVIRON; Likert R., 1961, NEW PATTERNS MANAGEM; Lubac H. de S.J., 1963, DRAMA ATHEISTIC HUMA; March J. G., 1958, ORGANIZATIONS; MASLOW AH, 1964, MOTIVATION PERSONALI; Mayo E., 1933, HUMAN PROBLEMS INDUS; McGregor D, 1960, HUMAN SIDE ENTERPRIS; Meadows D. H., 1972, LIMITS GROWTH; PEERY NS, 1972, ACAD MANAGE J, V15, P495, DOI 10.2307/255144; PHILLIPS DC, 1972, ACAD MANAGE J, V15, P469, DOI 10.2307/255142; Rawls John, 1971, THEORY JUSTICE; Reich Charles A., 1970, GREENING AM; Roethlisberger Fritz J, 1956, MANAGEMENT MORALE; SCOTT WG, 1961, ACAD MANAGE J, V4, P7; SCOTT WG, 1972, ORGANIZATION THEORY; Sutton F. X., 1956, AM BUSINESS CREED; Taylor F., 1911, SHOP MANAGEMENT; TEILHARDDECHARD.P, 1961, PHENOMENON MAN; THAYER F, 1972, ACAD MANAGE J, V15, P481, DOI 10.2307/255143; Toffler A., 1970, FUTURE SHOCK; VONBERTALANFFY L, 1952, PROBLEMS LIFE	40	24	24	0	2	ACAD MANAGEMENT	BRIARCLIFF MANOR	PACE UNIV, PO BOX 3020, 235 ELM RD, BRIARCLIFF MANOR, NY 10510-8020	0001-4273			ACAD MANAGE J	Acad. Manage. J.		1974	17	2					242	254		10.2307/254978				13	Business; Management	Business & Economics	T1421	WOS:A1974T142100005					2019-01-18	
J	HELLRIEGEL, D; SLOCUM, JW				HELLRIEGEL, D; SLOCUM, JW			ORGANIZATIONAL CLIMATE - MEASURES, RESEARCH AND CONTINGENCIES	ACADEMY OF MANAGEMENT JOURNAL			English	Article									PENN STATE UNIV, UNIVERSITY PK, PA 16802 USA							BEER M, 1971, SEP AM PSYCH ASS CON; Burns T, 1961, MANAGEMENT INNOVATIO; CAMPBELL JP, 1970, MANAGERIAL BEHAVIOR; CAWSEY T, 1973, 16 ANN MIDW AC MAN M; COSTLEY D, UNPUBLISHED PAPER; DACHLER HP, 1973, 10 ANN EAST AC MAN M; DAVIS JW, 1968, PERS ADMIN, V31, P50; DEWHIRST D, 1971, PERS J, V50, P196; DIETERLY D, IN PRESS; DUNCAN RB, 1972, ADMIN SCI QUART, V17, P313, DOI 10.2307/2392145; DUNNETTE M, UNPUBLISHED PAPER; EVAN WM, 1963, MANAGE SCI, V9, P468, DOI 10.1287/mnsc.9.3.468; FILLEY AC, 1969, MANAGERIAL PROCESS O; FOREHAND GA, 1964, PSYCHOL BULL, V62, P361, DOI 10.1037/h0045960; FREDERICKSON N, 1966, RM6621 ED TEST SERV; FREDERICKSON N, 1968, SEP AM PSYCH ASS CON; FRIEDLANDER F, 1971, J APPL PSYCHOL, V55, P287, DOI 10.1037/h0031532; FRIEDLANDER F, 1969, PERS PSYCHOL, V22, P171, DOI 10.1111/j.1744-6570.1969.tb02300.x; GEORGE JR, 1971, ADMIN SCI QUART, V16, P467, DOI 10.2307/2391766; GOLEMBIEWSKI R, 1973, 33 ANN C AC MAN BOST; GOLEMBIEWSKI RT, 1971, ACAD MANAGE J, V14, P465, DOI 10.2307/255061; GOLEMBIEWSKI RT, 1970, ACAD MANAGE J, V13, P13, DOI 10.2307/254923; GOLEMBIEWSKI RT, 1973, ACAD MANAGE J, V16, P149, DOI 10.2307/255050; GOLEMBIEWSKI RT, 1970, ADMIN SCI QUART, V15, P330, DOI 10.2307/2391623; GUION RM, 1973, ORGAN BEHAV HUM PERF, V9, P120, DOI 10.1016/0030-5073(73)90041-X; HALL DT, 1969, RES MANAGE, V12, P339; HALL JW, 1972, ADMIN SCI QUART, V17, P586, DOI 10.2307/2393835; HALPIN A, 1962, SAE5438639 CONTR; Halpin Andrew, 1967, J EDUC ADMIN, V5, P5; HAND HH, 1972, J APPL PSYCHOL, V56, P412, DOI 10.1037/h0033592; HAND HH, 1973, ACAD MANAGE J, V16, P185, DOI 10.2307/255321; HAND HH, 1970, ACAD MANAGE J, V13, P403, DOI 10.2307/254830; HELLRIEGEL D, 1974, MANAGEMENT CONTINGEN; HOLLOMAN R, 1973, 10 ANN M EAST AC MAN; HOUSE RJ, 1972, J APPL PSYCHOL, V56, P388, DOI 10.1037/h0033444; HUNT RG, 1970, ACAD MANAGE J, V13, P235, DOI 10.2307/254962; IVANCEVICH JM, 1972, ADMIN SCI QUART, V17, P126, DOI 10.2307/2392101; JOHANNESSON RE, 1973, ORGAN BEHAV HUM PERF, V10, P118, DOI 10.1016/0030-5073(73)90008-1; JOHANNESSON RE, 1971, NEW DEVELOPMENTS MAN, P27; KACZKA E, 1968, ADM SCI Q, V12, P252; LAFOLLETTE W, UNPUBLISHED PAPER; LEAVITT HJ, 1965, HDB ORGANIZATIONS; LIKERT R, 1967, HUMAN ORGANIZATION; LIRTZMAN S, 1973, 33 ANN C AC MAN BOST; LITWIN G, 1966, C ORGANIZATIONAL CLI; LITWIN GH, 1968, MOTIVATION ORGANIZAT; Marrow Alfred J., 1967, MANAGEMENT PARTICIPA; Parsons T., 1960, STRUCTURE PROCESS MO; PAYNE RL, 1971, ORGAN BEHAV HUM PERF, V6, P77, DOI 10.1016/0030-5073(71)90006-7; PETIT TA, 1967, ACAD MANAGE J, V10, P341, DOI 10.2307/255267; PORTER L, 1965, PSYCHOL BULL, V41, P23; PRITCHARD R, 1973, ORGANIZATIONAL BEHAV, V9, P110; PUGH DS, 1969, ADMIN SCI QUART, V14, P91, DOI 10.2307/2391366; SCHNEIDER B, 1968, PERS PSYCHOL, V21, P323, DOI 10.1111/j.1744-6570.1968.tb02033.x; SCHNEIDER B, 1973, J APPL PSYCHOL, V57, P248, DOI 10.1037/h0034724; SCHNEIDER B, 1972, J APPL PSYCHOL, V56, P447, DOI 10.1037/h0033756; SCHNEIDER B, 1972, J APPL PSYCHOL, V56, P211, DOI 10.1037/h0033103; Schneider B., 1970, PERS PSYCHOL, V23, P493; SCHNEIDER B, 1973, MAY MIDW PSYCH ASS; SKINNER BF, 1966, BEHAV SCI, V11, P159, DOI 10.1002/bs.3830110302; SORCHER M, 1969, PERSONNEL, V46, P16; STIMSON J, 1971, EDUC URBAN SOC, V3, P333, DOI 10.1177/001312457100300306; TAGURI R, 1969, ORGANIZATIONAL CLIMA; TAYLOR JC, 1972, SURVEY ORGANIZATIONS; THOMPSON JD, 1967, ORGANIZATION ACTION; THORNTON CG, 1969, EXPTL PUBLICATION SY, V2; VROOM VH, 1964, WORK MOTIVATION; WATSON JR, 1973, THESIS U ILLINOIS; WHISLER TL, 1970, INFORMATION TECHNOLO	69	183	190	1	25	ACAD MANAGEMENT	BRIARCLIFF MANOR	PACE UNIV, PO BOX 3020, 235 ELM RD, BRIARCLIFF MANOR, NY 10510-8020 USA	0001-4273	1948-0989		ACAD MANAGE J	Acad. Manage. J.		1974	17	2					255	280		10.2307/254979				26	Business; Management	Business & Economics	T1421	WOS:A1974T142100006					2019-01-18	
J	MCCASKEY, MB				MCCASKEY, MB			CONTINGENCY APPROACH TO PLANNING - PLANNING WITH GOALS AND PLANNING WITHOUT GOALS	ACADEMY OF MANAGEMENT JOURNAL			English	Article									UNIV CALIF,GRAD SCH MANAGEMENT,LOS ANGELES,CA 90024							ANGYAL A, 1969, FOUNDATIONS SCIENCE; ANTHONY RN, 1965, PLANNING CONTROL SYS; ARGYRIS C, UNPUBLISHED PAPER; ATHOS AG, 1970, HARVARD BUS REV, V48, P49; BAYBROOKE D., 1963, STRATEGY DECISION; Burns T, 1961, MANAGEMENT INNOVATIO; CANNON JT, 1958, BUSINESS STRATEGY PO; CLARK JC, 1972, CREATING DEVELOPMENT; GRUNDSTEIN ND, 1970, PLANNING WITHOUT GOA; Kahn R. L., 1964, ORGANIZATIONAL STRES; Kaplan A., 1964, CONDUCT INQUIRY; KINGDON DR, 1973, MATRIX ORGANIZATION; KOLB DA, 1971, ORGANIZATIONAL PSYCH; KOTTER J, 1972, MAYOR INTERIM RESEAR; KOTTER JP, 1972, PERSONNEL, V49, P46; Learned E.P., 1969, BUSINESS POLICY TEXT; Lindblom C., 1968, POLICY MAKING PROCES; March J. G., 1958, ORGANIZATIONS; MARCH JG, 1972, STANFORD ALUMNI ALMA, V11, P6; MCCASKEY MB, IN PRESS; MCKELVEY W, UNPUBLISHED PAPER; MCWHINNEY W, 1968, HUMAN RELATIONS  AUG, P269; MORSE JJ, INDIVIDUALS ORGANIZA; Sarason S. B., 1972, CREATION SETTINGS FU; SCHLESINGER JR, 1966, P3316 RAND CORP REP; SCHRAGE H, 1965, HARVARD BUSINESS NOV, P56; Simon H. A., 1960, MANAGEMENT CORPORATI; Steiner G, 1969, TOP MANAGEMENT PLANN; THOMPSON JD, 1967, ORGANIZATIONS ACTION	29	14	14	0	5	ACAD MANAGEMENT	BRIARCLIFF MANOR	PACE UNIV, PO BOX 3020, 235 ELM RD, BRIARCLIFF MANOR, NY 10510-8020	0001-4273			ACAD MANAGE J	Acad. Manage. J.		1974	17	2					281	291		10.2307/254980				11	Business; Management	Business & Economics	T1421	WOS:A1974T142100007					2019-01-18	
J	GIGLIONI, GB; BEDEIAN, AG				GIGLIONI, GB; BEDEIAN, AG			CONSPECTUS OF MANAGEMENT CONTROL THEORY - 1900-1972	ACADEMY OF MANAGEMENT JOURNAL			English	Article									MISSISSIPPI STATE UNIV,MANPOWER RES CTR,STATE COLL,MS 39762; BOSTON UNIV,COLL BUSINESS ADM,OVERSEAS GRAD PROGRAM,BOSTON,MA			Bedeian, Arthur/A-9066-2008				Anthony R. N., 1964, MANAGEMENT SERVICES, V1, P18; ANTHONY RN, 1965, PLANNING CONTROL SYS; ARROW KJ, 1964, MANAGE SCI, V10, P397, DOI 10.1287/mnsc.10.3.397; ARROW KJ, 1964, MANAGEMENT CONTROLS; ASPLUND I, 1969, MANAGEMENT CONTROL S; BRECH EFL, 1948, MANAGEMENT ITS NATUR; BRECH EFL, 1965, ORGANISATION FRAMEWO; CHURCH AH, 1912, AM MACHINIST, V36, P857; CHURCH AH, 1914, SCIENCE PRACTICE MAN; Copley Frank Barkley, 1923, FW TAYLOR FATHER SCI; CORNELL WB, 1928, INDUSTRIAL ORGANIZAT; CORNELL WB, 1930, MODERN BUSINESS, V3; DAUTEN PM, 1958, ACAD MANAGE J, V1, P41; DAUTEN PM, 1962, CURRENT ISSUES EMERG, V1; DAVIS R, 1940, INDUSTRIAL ORGANIZAT; Davis R. C., 1934, PRINCIPLES BUSINESS; Davis R. C., 1951, FUNDAMENTALS TOP MAN; DAVIS RA, UNPUBLISHED PAPER; Davis Ralph C., 1928, PRINCIPLES FACTORY O; DAVIS RC, 1941, SHOP MANAGEMENT SHOP; Deming R, 1968, CHARACTERISTICS EFFE; DENT AGH, 1935, MANAGEMENT PLANNING; DENT AGH, 1934, INDUSTRY ILLUSTRATED, V2, P28; DEVERELL CS, 1967, MANAGEMENT PLANNING; DIEMER H, 1924, INDUSTRIAL MANAGEMEN, V67, P280; DIEMER H, 1915, INDUSTRIAL ORGANIZAT; DIMOCK ME, 1945, EXECUTIVE ACTION; DONNELLY JH, 1971, FUNDAMENTALS MANAGEM; Drucker P., 1964, MANAGEMENT CONTROLS; Drucker P., 1954, PRACTICE MANAGEMENT; DUTTON HP, 1927, SHAW PLANT SHOP, V2; DUTTON HP, 1931, PRINCIPLES ORGANIZAT; DUTTON HP, 1925, BUSINESS ORGANIZATIO; DUTTON HP, 1924, FACTORY MANAGEMENT; Emerson H., 1912, 12 PRINCIPLES EFFICI; EMERSON H, 1910, ENGINEERING MAGAZINE, V39; FAYOL H, 1949, GENERAL INDUSTRIAL M; *FED AM ENG SOC, 1921, WASTE INDUSTRY; FILIPETTI G, 1946, INDUSTRIAL MANAGEMEN; FRANKLIN BA, 1922, MANAGEMENT ENGINEERI, V3, P133; Glover J. G., 1937, MANAGERIAL CONTROL; Goetz B. E., 1949, MANAGEMENT PLANNING; GOODWIN ESL, 1960, MICHIGAN BUSINESS RE, V12, P13; HEKIMIAN JS, 1963, MANAGEMENT CONTROL L; Holden P. E., 1941, TOP MANAGEMENT ORGAN; HOPF HA, 1944, SPECTATOR LIFE INSUR, V151, P45; HOPF HA, 1943, SPECTATOR LIFE INSUR, V151, P26; JEROME WT, 1961, EXECUTIVE CONTROL CA; KAST FE, 1970, ORGANIZATION MANAGEM; KOONTZ H, 1958, ACAD MANAGE J, V1, P45; KOONTZ H, 1959, CALIF MANAGE REV, V1, P47, DOI 10.2307/41165346; Koontz H, 1972, BUS HORIZONS, V15, P25; Koontz H., 1972, PRINCIPLES MANAGEMEN; LAMPERTI FA, 1953, INTERNAL AUDITING MA; LAWSON FM, 1920, INDUSTRIAL CONTROL; LICHTNER WO, 1924, PLANNED CONTROL MANU; LITTERER JA, 1965, ANALYSIS ORGANIZATIO; LUNESKI C, 1964, ACCOUNT REV, V39, P591; MCCAULLY HJ, 1948, MANAGEMENT CONTROLS; MOCKLER RJ, 1967, FINANCIAL EXECUTIVE, V35, P80; MOCKLER RJ, 1972, MANAGEMENT CONTROL P; Mundel M.E., 1967, CONCEPTUAL FRAMEWORK; MUTH JF, 1972, 4 P ANN M AM I DEC S; NEWMAN WH, 1951, ADMINISTRATIVE ACTIO; PERSON HS, 1929, SCIENTIFIC MANAGEMEN; Rathe A. W, 1960, MANAGEMENT CONTROL S; REEVES TK, 1970, INDUSTRIAL ORGANIZAT; RICE WB, 1947, CONTROL CHARTS FACTO; ROBINSON W, 1925, FUNDAMENTALS BUSINES; ROSE TG, 1952, COMPANY CONTROL; ROSE TG, 1934, HIGHER CONTROL; ROSE TG, 1957, HIGHER MANAGEMENT CO; ROWE AJ, 1960, MANAGEMENT CONTROL S; ROWLAND FH, 1947, BUSINESS PLANNING CO; SCHELL EH, 1934, TECHNIQUE EXECUTIVE; SCHREIBER NB, 1942, PHILOSOPHY ORGANIZAT; Sisk H. L., 1969, PRINCIPLES MANAGEMEN; SOMERVELL BB, 1948, ORGANIZATION CONTROL; SORD BH, 1964, 27 U TEX BUR BUS RES; STOKES PM, 1968, TOTAL SYSTEMS APPROA; TANNENBAUM AS, 1968, CONTROL ORGANIZATION; Taylor F. W., 1906, TRANSACTIONS, V27, P31; TERRY GR, 1953, PRINCIPLES MANAGEMEN; THURSTON JB, 1947, ADV MANAGEMENT J, V12, P74; THURSTON JB, 1948, COORDINATING CONTROL; THURSTON JB, 1945, COMPANY DEVELOPMENT; TRUNDLE GT, 1948, MANAGERIAL CONTROL B; TRUNDLE GT, 1931, HDB BUSINESS ADMINIS; Urwick L., 1960, MICHIGAN BUSINESS RE, V12, P9; URWICK L, 1943, ELEMENTS ADMINISTRAT; URWICK LF, 1928, DICTIONARY INDUSTRIA, V1; VILLERS R, 1964, RESEARCH DEVELOPMENT; WHARTON KJ, 1947, ACCOUNTANT      0823; WHARTON KJ, 1947, ADMINISTRATIVE CONTR; WHARTON KJ, 1947, ACCOUNTANT      0816; WHARTON KJ, 1947, ACCOUNTANT      0830; White P., 1926, BUSINESS MANAGEMENT; Williams J. H., 1926, B TAYLOR SOC, V11, P199; WILLIAMS JH, 1929, SCIENTIFIC MANAGEMEN	99	29	29	0	3	ACAD MANAGEMENT	BRIARCLIFF MANOR	PACE UNIV, PO BOX 3020, 235 ELM RD, BRIARCLIFF MANOR, NY 10510-8020	0001-4273			ACAD MANAGE J	Acad. Manage. J.		1974	17	2					292	305		10.2307/254981				14	Business; Management	Business & Economics	T1421	WOS:A1974T142100008					2019-01-18	
J	BELL, EC				BELL, EC			COLLEGE OF BUSINESS ADMINISTRATION AS A PRODUCTION SYSTEM	ACADEMY OF MANAGEMENT JOURNAL			English	Article									UNIV HOUSTON,COLL BUSINESS ADM,DEPT ORG BEHAVIOR & MANAGEMENT,HOUSTON,TX 77004							BRANNEN TR, 1968, AACSB B, V5; CLELAND DI, 1972, MANAGEMENT SYSTEMS A; HARRISON F, 1973, ACAD MANAGE J, V16, P227, DOI 10.2307/255324; KAST FE, 1972, ACAD MANAGE J, V15, P447, DOI 10.2307/255141; KATZ D, 1966, SOCIAL PSYCHOLOGY; LITTERER J, 1973, ANALYSIS ORGANIZATIO; Miner J.B., 1973, MANAGEMENT PROCESS T; Paschke P. E., 1973, DECISION SCIENCES, V4, P194; SEILER JA, 1967, SYSTEMS ANALYSIS ORG; Wagner HM, 1969, PRINCIPLES OPERATION	10	2	2	0	1	ACAD MANAGEMENT	BRIARCLIFF MANOR	PACE UNIV, PO BOX 3020, 235 ELM RD, BRIARCLIFF MANOR, NY 10510-8020	0001-4273			ACAD MANAGE J	Acad. Manage. J.		1974	17	2					306	317		10.2307/254982				12	Business; Management	Business & Economics	T1421	WOS:A1974T142100009					2019-01-18	
J	BROWNE, PJ; GOLEMBIE.RT				BROWNE, PJ; GOLEMBIE.RT			LINE-STAFF CONCEPT REVISITED - EMPIRICAL STUDY OF ORGANIZATIONAL IMAGES	ACADEMY OF MANAGEMENT JOURNAL			English	Article									ALLSTATE INSURANCE COMP,NORTHBROOK,IL 30340; UNIV GEORGIA,ATHENS,GA							Adler A., 1927, PRACTICE THEORY INDI; BELASCO JA, 1969, ACAD MANAGE J, V12, P469, DOI 10.2307/254735; BLAKE RR, 1964, MANAGING INTERGROUP; Boulding K., 1956, IMAGE; Boulding K. E., 1957, J CONFLICT RESOLUT, V1, P122; BROWNE PJ, 1971, THESIS U OREGON; CARRIGAN PM, 1960, PSYCHOL BULL, V57, P329, DOI 10.1037/h0045451; Dale Ernest, 1967, ORGANIZATION; Dalton M, 1950, AM SOCIOL REV, V15, P342, DOI 10.2307/2087175; DIGGORY JC, 1966, SELF EVALUATION; GOLEMBIEWSKI R, 1967, ORGANIZING MEN POWER; GOLEMBIEWSKI RT, 1961, MIDWEST J POLIT SCI, V5, P237, DOI 10.2307/2108937; GUENTHER WC, 1964, ANALYSIS VARIANCE; Horney K., 1937, NEUROTIC PERSONALITY; Koontz H., 1968, PRINCIPLES MANAGEMEN; KRECH D, 1962, INDIVIDUALS SOC; LAWRENCE PR, 1967, ORGANIZATION ENVIRON; Lewin K., 1936, PRINCIPLES TOPOLOGIC; LITTERER JA, 1965, ANALYSIS ORGANIZATIO; LITWIN GH, 1968, MOTIVATION ORGANIZAT; March J. G., 1958, ORGANIZATIONS; MASCARENHAS RC, 1972, ACAD MANAGE J, V15, P65, DOI 10.2307/254801; McGregor D, 1960, HUMAN SIDE ENTERPRIS; SCHEFFE H, 1959, ANALYSIS VARIANCE; SCHUTZ WC, 1958, 3 DIMENSIONAL THEORY; SCOTT WA, 1969, HDB SOCIAL PSYCHOLOG, V2; SCOTT WA, 1965, INT BEHAVIOR; SECORD PF, 1964, SOCIAL PSYCHOLOGY; SELZNICK P, 1957, LEADERSHIP ADMINISTR; Sherif M., 1966, GROUPS HARMONY TENSI; Simon HA, 1946, PUBLIC ADMIN REV, V6, P53, DOI 10.2307/973030; Simon HA, 1952, AM POLIT SCI REV, V46, P1130, DOI 10.2307/1952117; STAHL OG, 1960, PUBLIC ADMIN REV, V20, P35, DOI 10.2307/974065; STAHL OG, 1958, PUBLIC ADMIN REV, V18, pR2, DOI 10.2307/973727; VANNOY JS, 1965, J PERS SOC PSYCHOL, V2, P385, DOI 10.1037/h0022270; ZAJONC RB, 1960, J ABNORM SOC PSYCH, V61, P159, DOI 10.1037/h0047987; ZALD MN, 1970, POWER ORGANIZATIONS; ZILLER RC, 1967, J CLIN PSYCHOL, V23, P15, DOI 10.1002/1097-4679(196701)23:1<15::AID-JCLP2270230104>3.0.CO;2-5; ZILLER RC, 1969, HOMOGENEITY HETEROGE; ZILLER RC, 1973, SOCIAL SELF	40	6	6	0	2	ACAD MANAGEMENT	BRIARCLIFF MANOR	PACE UNIV, PO BOX 3020, 235 ELM RD, BRIARCLIFF MANOR, NY 10510-8020	0001-4273			ACAD MANAGE J	Acad. Manage. J.		1974	17	3					406	417		10.2307/254645				12	Business; Management	Business & Economics	U0353	WOS:A1974U035300001					2019-01-18	
J	REIMANN, BC				REIMANN, BC			PUBLIC PHILOSOPHY OF ORGANIZATIONS	ACADEMY OF MANAGEMENT JOURNAL			English	Article									UNIV PENN,PHILADELPHIA,PA 19104							ENGLAND GW, 1967, ACAD MANAGE J, V10, P53, DOI 10.2307/255244; GONZALEZ RF, 1961, ACAD MANAGE J, V4, P33; KOONTZ H, 1961, ACAD MANAGE J, V4, P174; LITZINGER WD, 1966, ACAD MANAGE J, V9, P337, DOI 10.2307/254952; March J. G., 1958, ORGANIZATION; NEGANDHI A, 1971, COMPARATIVE MANAGEME; NEGANDHI AR, 1972, ACAD MANAGE J, V15, P137, DOI 10.2307/254904; NEGANDHI AR, 1965, ACAD MANAGE J, V8, P309, DOI 10.2307/255346; Osgood C.E., 1957, MEASUREMENT MEANING; OSGOOD CE, 1961, J ABNORM SOC PSYCH, V62, P62, DOI 10.1037/h0040142; REIMANN BC, 1971, Q J MANAGEMENT DEV, V2, P25; Steiner G. A., 1971, BUSINESS SOC	12	3	3	0	1	ACAD MANAGEMENT	BRIARCLIFF MANOR	PACE UNIV, PO BOX 3020, 235 ELM RD, BRIARCLIFF MANOR, NY 10510-8020	0001-4273			ACAD MANAGE J	Acad. Manage. J.		1974	17	3					418	427		10.2307/254646				10	Business; Management	Business & Economics	U0353	WOS:A1974U035300002					2019-01-18	
J	IVANCEVICH, JM				IVANCEVICH, JM			STUDY OF A COGNITIVE TRAINING PROGRAM - TRAINER STYLES AND GROUP DEVELOPMENT	ACADEMY OF MANAGEMENT JOURNAL			English	Article									UNIV HOUSTON, HOUSTON, TX 77004 USA							BENNIS WG, 1956, HUM RELAT, V9, P415, DOI 10.1177/001872675600900403; FILLEY AC, 1962, PRELIMINARY SURVEY T; HOUSE RJ, 1965, PERS PSYCHOL, V18, P311, DOI 10.1111/j.1744-6570.1965.tb00288.x; LUNDGREN DC, 1971, J APPL BEHAV SCI, V7, P689, DOI 10.1177/002188637100700604; MCNEMAR Q, 1962, PSYCHOLOGICAL STATIS; MOSVICK RK, 1971, PERS PSYCHOL, V24, P275; Oppenheim A.N., 1966, QUESTIONNAIRE DESIGN; PAGE RH, 1959, J APPL PSYCHOL, V43, P240, DOI 10.1037/h0046020; RUNKEL PJ, 1971, J APPL BEHAV SCI, V7, P180, DOI 10.1177/002188637100700204; SLATER PE, 1966, MICROCOSM STRUCTURAL; Theodorson GA, 1953, SOC FORCES, V31, P311, DOI 10.2307/2573065; TUCKMAN BW, 1965, PSYCHOL BULL, V63, P384, DOI 10.1037/h0022100	12	5	5	0	3	ACAD MANAGEMENT	BRIARCLIFF MANOR	PACE UNIV, PO BOX 3020, 235 ELM RD, BRIARCLIFF MANOR, NY 10510-8020 USA	0001-4273	1948-0989		ACAD MANAGE J	Acad. Manage. J.		1974	17	3					428	439		10.2307/254647				12	Business; Management	Business & Economics	U0353	WOS:A1974U035300003					2019-01-18	
J	TAYLOR, RL; WILSTED, WD				TAYLOR, RL; WILSTED, WD			CAPTURING JUDGMENT POLICIES - FIELD STUDY OF PERFORMANCE APPRAISAL	ACADEMY OF MANAGEMENT JOURNAL			English	Article									USAF ACAD,DEPT ECON GEOG & MANAGEMENT,DENVER,CO 80200; UNIV COLORADO,BOULDER,CO							BALKE WM, 1972, 145 U COL I BEH SCIE; BRADY D, 1973, ORGANIZATIONAL BEHAV, V8, P253; HOFFMAN PJ, 1960, PSYCHOL BULL, V47, P116; RAPPOPORT L, 1973, HUMAN JUDGMENT SOCIA; SLOVIC P, 1969, J APPL PSYCHOL, V53, P255, DOI 10.1037/h0027773; WILSTED W, 1973, MAR AM I DEC SCIENC	6	28	28	1	2	ACAD MANAGEMENT	BRIARCLIFF MANOR	PACE UNIV, PO BOX 3020, 235 ELM RD, BRIARCLIFF MANOR, NY 10510-8020	0001-4273			ACAD MANAGE J	Acad. Manage. J.		1974	17	3					440	449		10.2307/254648				10	Business; Management	Business & Economics	U0353	WOS:A1974U035300004					2019-01-18	
J	WEARING, AJ; BISHOP, DW				WEARING, AJ; BISHOP, DW			FIEDLER CONTINGENCY MODEL AND FUNCTIONING OF MILITARY SQUADS	ACADEMY OF MANAGEMENT JOURNAL			English	Article									UNIV MELBOURNE,VICTORIA,AUSTRALIA; UNIV ILLINOIS,URBANA,IL							Fiedler F. E., 1967, THEORY LEADERSHIP EF; FIEDLER FE, 1964, ADV EXPTL SOCIAL PSY; FIEDLER FE, 1958, LEADER ATTITUDES GRO; GIBB C, 1969, HDB SOCIAL PSYCHOLOG; JONES HR, 1972, ACAD MANAGE J, V15, P185, DOI 10.2307/254910; MCGRATH JE, 1966, SMALL GROUP RESEARCH; STEINER ID, 1964, ANNUAL REV PSYCHOLOG	7	0	0	1	2	ACAD MANAGEMENT	BRIARCLIFF MANOR	PACE UNIV, PO BOX 3020, 235 ELM RD, BRIARCLIFF MANOR, NY 10510-8020	0001-4273			ACAD MANAGE J	Acad. Manage. J.		1974	17	3					450	459		10.2307/254649				10	Business; Management	Business & Economics	U0353	WOS:A1974U035300005					2019-01-18	
J	CUMMINGS, LL; HUBER, GP; ARENDT, E				CUMMINGS, LL; HUBER, GP; ARENDT, E			EFFECTS OF SIZE AND SPATIAL ARRANGEMENTS ON GROUP DECISION MAKING	ACADEMY OF MANAGEMENT JOURNAL			English	Article									UNIV WISCONSIN,GRAD SCH BUSINESS,MADISON,WI; UNIV WISCONSIN,CTR STUDY ORG PERFORMANCE,MADISON,WI 53706							BALES RF, 1955, SMALL GROUPS; Bass BM, 1951, J APPL PSYCHOL, V35, P397, DOI 10.1037/h0055478; BASS BM, 1952, J ABNORM SOC PSYCH, V47, P724, DOI 10.1037/h0062697; BOUCHARD TJ, 1970, J APPL PSYCHOL, V54, P51, DOI 10.1037/h0028621; COLLINS EB, 1964, SOCIAL PSYCHOLOGY GR; Davis J. H., 1969, GROUP PERFORMANCE; FRANK F, 1971, SOCIOMETRY, V34, P135, DOI 10.2307/2786356; GIBB JR, 1951, AM PSYCHOL, V6, P324; Hackman R., 1970, SOCIOMETRY, V33, P37; HALL J, 1971, PSYCHOL TODAY, V5, P51; HALL J, 1971, PSYCHOL TODAY, V5, P86; Hare AP, 1952, AM SOCIOL REV, V17, P261, DOI 10.2307/2088071; HEARN G, 1957, J ABNORM SOC PSYCH, V54, P269, DOI 10.1037/h0047234; HOWELLS LT, 1962, J ABNORM PSYCHOL, V64, P148, DOI 10.1037/h0040421; Maier N. R. F., 1970, PROBLEM SOLVING CREA; MAIER NRF, 1972, PERS PSYCHOL, V25, P531, DOI 10.1111/j.1744-6570.1972.tb00836.x; NORUM GA, 1967, PSYCHOLOGY SCH, V3, P276; Shaw M, 1971, GROUP DYNAMICS PSYCH; SHELLEY HP, 1960, J SOC PSYCHOL, V51, P157, DOI 10.1080/00224545.1960.9922024; SHULL FA, 1970, ORGANIZATIONAL DECIS; SLATER PE, 1958, SOCIOMETRY, V21, P129, DOI 10.2307/2785897; SOMMER R, 1961, SOCIOMETRY, V24, P99, DOI 10.2307/2785932; SOMMER R, 1965, SOCIOMETRY, V28, P337, DOI 10.2307/2785987; SOMMER R, 1967, PSYCHOL BULL, V67, P145, DOI 10.1037/h0024201; Sommer R., 1969, PERSONAL SPACE BEHAV; STEINZOR B, 1950, J ABNORM SOC PSYCH, V45, P552, DOI 10.1037/h0061767; STRODTBECK FL, 1961, SOCIOMETRY, V24, P397, DOI 10.2307/2785921; THOMAS EJ, 1963, PSYCHOL BULL, V60, P371, DOI 10.1037/h0047169; VANDEVEN A, 1971, ACAD MANAGE J, V14, P203, DOI 10.2307/255307; VROOM VH, 1973, ORGAN DYN, V1, P66, DOI 10.1016/S0090-2616(73)80024-5; ZANDER A, 1971, MOTIVES GOALS GROUPS; ZILLER RC, 1957, SOCIOMETRY, V20, P165, DOI 10.2307/2785643	32	41	41	0	7	ACAD MANAGEMENT	BRIARCLIFF MANOR	PACE UNIV, PO BOX 3020, 235 ELM RD, BRIARCLIFF MANOR, NY 10510-8020	0001-4273			ACAD MANAGE J	Acad. Manage. J.		1974	17	3					460	475		10.2307/254650				16	Business; Management	Business & Economics	U0353	WOS:A1974U035300006					2019-01-18	
J	PRESTON, LE; POST, JE				PRESTON, LE; POST, JE			THIRD MANAGERIAL REVOLUTION	ACADEMY OF MANAGEMENT JOURNAL			English	Article									BOSTON UNIV, BOSTON, MA USA; SUNY, SCH MANAGEMENT, BUFFALO, NY USA							ADIZES I, 1973, ACAD MANAGE J, V16, P112, DOI 10.2307/255047; Bell Daniel, 1973, COMING POST INDUSTRI; Berle A, 1932, MODERN CORPORATION; Burch P., 1972, MANAGERIAL REVOLUTIO; Burnham J, 1941, MANAGERIAL REVOLUTIO; GALBRAITH JK, 1967, NEW INDUSTRIAL STATE; GALBRAITH JK, 1973, ECONOMICS PUBLIC PUR; Gordon R. A., 1961, BUSINESS LEADERSHIP; HUNT RG, 1974, INTERPERSONAL STRATE; Jacoby N. H., 1973, CORPORATE POWER SOCI; JENKINS D, 1973, NEW YORK TIMES  1014; JENKINS D, 1973, NEW YORK TIMES  0513, P1; Kast F., 1973, CONTINGENCY VIEWS OR; KATZ D, 1966, SOCIAL PSYCHOLOGY OR; KELSO LO, 1967, 2 FACTOR THEORY ECON; KNOWLES HP, 1967, HARVARD BUS REV, V45, P20; LARNER RJ, 1970, MANAGEMENT CONTROL L; LEVITT T, 1973, THIRD SECTOR; LOWIN A, 1968, ORGAN BEHAV HUM PERF, V3, P68, DOI 10.1016/0030-5073(68)90028-7; Miller D. W., 1969, EXECUTIVE DECISIONS; SCHEIN EH, 1965, ORGANIZATIONAL PSYCH; TANNENBAUM AS, 1968, CONTROL ORGANIZATION; THOMPSON JD, 1973, CONTINGENCY VIEWS OR; ULMAN N, 1973, WALL STREET J   0223, P1; VANDEVALL M, 1973, MANAGEMENT RESEARCH; WAYS M, 1970, FORTUNE          MAY	26	9	9	0	1	ACAD MANAGEMENT	BRIARCLIFF MANOR	PACE UNIV, PO BOX 3020, 235 ELM RD, BRIARCLIFF MANOR, NY 10510-8020 USA	0001-4273			ACAD MANAGE J	Acad. Manage. J.		1974	17	3					476	486		10.2307/254651				11	Business; Management	Business & Economics	U0353	WOS:A1974U035300007					2019-01-18	
J	WEICK, KE				WEICK, KE			AMENDMENTS TO ORGANIZATIONAL THEORIZING	ACADEMY OF MANAGEMENT JOURNAL			English	Article									CORNELL UNIV,GRAD SCH BUSINESS & PUBLIC ADM,ITHACA,NY; CORNELL UNIV,GRAD SCH BUSINESS & PUBLIC ADM,DEPT PSYCHOL,ITHACA,NY 14850							ALLISON GT, 1969, AM POLIT SCI REV, V63, P689, DOI 10.2307/1954423; ARGYRIS C, 1973, PUBLIC ADM REV   MAY, P253; BERSCHEID E, ADV SOCIAL PSYCHOLOG, V6; BOULDING KE, 1972, AM BEHAV SCI, V15, P329, DOI 10.1177/000276427201500303; Campbell D. T, 1965, SOCIAL CHANGE DEV AR, P19; CAMPBELL DT, 1972, BOSTON STUDIES PHILO, V10; COHEN MD, 1972, ADMIN SCI QUART, V17, P1, DOI 10.2307/2392088; CULBERT SA, 1972, FAM PROCESS, V11, P321, DOI 10.1111/j.1545-5300.1972.00321.x; FESTINGER L, 1964, J ABNORM SOC PSYCH, V68, P359, DOI 10.1037/h0049073; Garfinkel H., 1967, STUDIES ETHNOMETHODO; HERNDON J, 1971, HOW SURVIVE YOUR NAT; HIRSCHMAN AO, 1962, BEHAV SCI, V7, P211; ICKHEISER G, 1970, APPEARANCES REALITIE; KAHN AE, 1966, KYKLOS, V19, P23, DOI 10.1111/j.1467-6435.1966.tb02491.x; KENDLER HH, 1968, BASIC PSYCHOLOGY; KERR C, 1964, DAEDALUS         FAL, P1068; LEVY DM, 1962, PSYCHIATR, V25, P295; MANDLER G, 1964, 1964 NEBR S MOT, P163; MAUGHAM WS, 1967, WRITERS NOTEBOOK; Mintzberg H, 1973, NATURE MANAGERIAL WO; SHUBIK M, 1970, 30 YAL U DEP ADM SCI; Thorndike EL, 1937, PEDAGOG SEMIN J GEN, V51, P227; WEICK KE, 1969, SOCIAL PSYCHOLOGY OR; WIBERG H, 1972, CONTEXT SOCIAL PSYCH; ZIMBARDO P, 1970, J PERS SOC PSYCHOL, V16, P669	25	35	36	1	9	ACAD MANAGEMENT	BRIARCLIFF MANOR	PACE UNIV, PO BOX 3020, 235 ELM RD, BRIARCLIFF MANOR, NY 10510-8020	0001-4273			ACAD MANAGE J	Acad. Manage. J.		1974	17	3					487	502		10.2307/254652				16	Business; Management	Business & Economics	U0353	WOS:A1974U035300008					2019-01-18	
J	GREENWOOD, WT				GREENWOOD, WT			FUTURE MANAGEMENT THEORY - COMPARATIVE EVOLUTION TO A GENERAL THEORY	ACADEMY OF MANAGEMENT JOURNAL			English	Article									UNIV GEORGIA, ATHENS, GA 30601 USA							ALEXIS M, 1967, ORGANIZATIONAL DECIS; ANDERSON EH, 1938, SCIENCE PRODUCTION O; ARGYRIS C, 1957, PERSONALITY ORGANIZA; Barnard Chester, 1948, FUNCTIONS EXECUTIVE; Barnes R. M., 1937, MOTION TIME STUDY; BEER S, 1959, CYBERNETICS MANAGEME; BEISHLINE JR, 1950, MILITARY MANAGEMENT; BERLINER J, 1959, COMPARISONS US SOVIE; BODDEWYN J, 1965, ACAD MANAGE J, V8, P261, DOI 10.2307/255342; BOULDING KE, 1956, MANAGE SCI, V2, P197, DOI 10.1287/mnsc.2.3.197; Bowen H. R., 1953, SOCIAL RESPONSIBILIT; BRAMBILLA F, 1961, MANAGEMENT INT, V1; BROSS IDJ, 1953, DESIGN DECISION; BUFFA ES, 1963, MODELS PRODUCTION OP; Chernoff H, 1959, ELEMENTARY DECISION; CHURCHMAN WC, 1957, INTRO OPERATIONS RES; Cordiner Ralph J., 1956, NEW FRONTIERS PROFES; COSER RL, 1958, AM SOCIOL REV, V23, P56, DOI 10.2307/2088624; DALE E, 1960, GREAT ORGANIZERS; DAVIS K, 1954, HUMAN RELATIONS BUSI; DAVIS K, 1966, BUSINESS ITS ENVIRON; Davis R. C., 1951, FUNDAMENTALS TOP MAN; DAVIS RC, 1958, ACAD MANAGE J, V1, P37; Drucker P., 1954, PRACTICE MANAGEMENT; EDWARDS W, 1954, PSYCHOL BULL, V51, P380, DOI 10.1037/h0053870; EELLS R, 1961, CONCEPTUAL FOUNDATIO; ERICSON RF, 1965, ACADEMY MANAGEMENT P, P56; ERICSON RF, 1967, ACADEMY MANAGEMENT P, P219; FARMER RN, 1965, COMPARATIVE MANAGEME; FETTER RB, 1957, MANAGERS KEY     MAY; FREDERICK WC, 1963, ACAD MANAGE J, V6, P212, DOI 10.2307/255092; FROOMKIN JN, 1964, ACAD MANAGE J, V7, P71, DOI 10.2307/255235; GAST WF, 1953, PRINCIPLES BUSINESS; GEORGE CS, 1968, HISTORY MANAGEMENT T; GONZALEZ RF, 1961, ACAD MANAGE J, V4, P33; GREEN EJ, 1957, ADMINISTRATIVE SCIEN, V2; GREENWOOD WT, 1967, MANAGEMENT AUDIT SYS; GREENWOOD WT, 1965, MANAGEMENT ORGANIZAT; HALPIN AW, 1966, THEORY RESEARCH ADMI; HANSON FA, 1965, ARMY MANAGEMENT VIEW, V10; HARBISON F, 1959, MANAGEMENT INDUSTRIA; Houser Theodore V., 1957, BIG BUSINESS HUMAN V; HUFF DL, 1960, U WASHINGTON BUSINES, V19; Johnson R. A., 1963, THEORY MANAGEMENT SY; JONES M, 1960, ACAD MANAGE J, V3, P93; JUCIUS MJ, 1947, PERSONNEL MANAGEMENT; KAUFMAN H, 1964, AM POLIT SCI REV, V58, P5, DOI 10.2307/1952750; KOONTZ H, 1969, ACAD MANAGE J, V12, P415, DOI 10.2307/254730; KOONTZ H, 1964, TOWARD UNIFIED THEOR; KOONTZ H, 1961, J ACAD MANAGEMENT, V4, P174; Koontz H., 1955, PRINCIPLES MANAGEMEN; LAWRENCE PR, 1961, ORGANIZATIONAL BEHAV; Likert R., 1961, NEW PATTERNS MANAGEM; LING CC, 1965, MANAGEMENT PERSONNEL; LITCHFIELD EH, 1956, ADMINISTRATIVE SCIEN, V1; LITZINGER WD, 1963, ACAD MANAGE J, V6, P36, DOI 10.2307/254875; March J. G., 1958, ORGANIZATION; MARTINDELL J, 1950, SCIENTIFIC APPRAISAL; Mayo E., 1933, HUMAN PROBLEMS INDUS; MCCANN EC, 1964, ACAD MANAGE J, V7, P149, DOI 10.2307/255023; McGregor D, 1960, HUMAN SIDE ENTERPRIS; McGuire J. W., 1963, BUSINESS SOC; MEE JF, 1959, HISTORY 20TH CENTURY; MEE JF, 1963, MANAGEMENT THOUGHT D; NEWMAN WH, 1950, ADMINISTRATIVE ACTIO; NEWMAN WH, 1961, PROCESS MANAGEMENT C; NOWOTNY OH, 1964, HARVARD BUS REV, V42, P101; OPTNER SL, 1960, SYSTEMS ANALYSIS BUS; PRATT JW, 1965, INTRO STATISTICAL DE; PRESTHUS R, 1956, ADMINISTRATIVE SCIEN, V3; ROETHLISBERGER RJ, 1956, MANAGEMENT WORKER; SAYLES LR, 1964, MANAGERIAL BEHAVIOR; SCOTT WG, 1961, ACAD MANAGE J, V4, P7; SCOTT WG, 1959, PERSONNEL ADMINISTRA, V22; SHELDON O, 1923, PHILOSOPHY MANAGEMEN; SHULL FA, 1970, ORGANIZATIONAL DECIS; Simon H., 1965, SHAPE AUTOMATION MEN; SIMON HA, 1945, ADMINISTRATIVE BEHAV; SMITH GA, 1962, BUSINESS SOC INDIVID; STARR MK, 1964, ACADEMY MANAGEMENT P, P128; TERRY GR, 1953, PRINCIPLES MANAGEMEN; THOMPSON JD, 1967, ORGANIZATIONS ACTION; TIMMS HL, 1962, PRODUCTION FUNCTION; URWICK L, 1943, ELEMENTS ADMINISTRAT; VONBERTALANFFY L, 1961, HUM BIOL, V23, P302; Webber R.A, 1969, CULTURE MANAGEMENT; WEBER M, 1947, THEORY SOCIAL ECONOM; Wren D. A., 1972, EVOLUTION MANAGEMENT; YODER D, 1938, PERSONNEL MANAGEMENT; Young S., 1966, MANAGEMENT SYSTEMS A; 1956, AM              0225	91	4	4	1	7	ACAD MANAGEMENT	BRIARCLIFF MANOR	PACE UNIV, PO BOX 3020, 235 ELM RD, BRIARCLIFF MANOR, NY 10510-8020 USA	0001-4273	1948-0989		ACAD MANAGE J	Acad. Manage. J.		1974	17	3					503	513		10.2307/254653				11	Business; Management	Business & Economics	U0353	WOS:A1974U035300009					2019-01-18	
J	KEFALAS, AG; SUOJANEN, WW				KEFALAS, AG; SUOJANEN, WW			ORGANIZATIONAL BEHAVIOR AND NEW BIOLOGY	ACADEMY OF MANAGEMENT JOURNAL			English	Article									UNIV GEORGIA,ATHENS,GA 30601; GEORGIA STATE UNIV,ATLANTA,GA 30303							ALLAND A, 1972, HUMAN IMPERATIVE; ANASTASI A, 1973, COMMON FALLACIES HER; CROOK JH, 1973, MAN AGGRESSION; DOBZHANSKY T, 1966, HEREDITY NATURE MAN; FROMM E, 1973, ANATOMY HUMAN DISTRA; GEVARTER WC, IN PRESS; GOLDBERG S, 1973, INEVITABILITY PATRIA; HERRNSTEIN RJ, 1973, SCIENCE         0706, P36; HOLLOWAY R, 1973, MAN AGGRESSION; Jencks C., 1972, INEQUALITY; JOLLY A, 1972, EVOLUTION PRIMATE BE; MACHIAVELLI N., 1950, PRINCE DISCOURSES; Maslow A. H., 1954, MOTIVATION PERSONALI; Maslow AH, 1936, PEDAGOG SEMIN J GEN, V48, P310; Montagu A., 1956, BIOSOCIAL NATURE MAN; MONTAGU A, 1973, MAN AGGRESSION; ORNSTEIN R, 1973, PSYCHOLOGY CONSCIOUS; PARSONS HM, 1974, SCIENCE         0308, P922; PILBEAM D, 1972, NEW YORK TIME M 0903, P10; PINES M, 1973, BRAIN CHANGES; ROBINSON DE, 1972, ACAD MANAGE J, V15, P345, DOI 10.2307/254859; ROSE S, 1973, CONSCIOUS BRAIN; SCOTT WG, 1971, ACAD MANAGE J, V14, P241, DOI 10.2307/255310; SCOTT WG, 1971, ACAD MANAGE J, V14, P538, DOI 10.2307/255070; SUOJANEN WW, 1970, SO J BUSINESS    OCT, P107; VALLENTYNE JR, 1973, SCIENCE PUBLIC A MAY, P24; 1973, PSYCHOLOGY TODAY AUG, P34	27	0	0	0	3	ACAD MANAGEMENT	BRIARCLIFF MANOR	PACE UNIV, PO BOX 3020, 235 ELM RD, BRIARCLIFF MANOR, NY 10510-8020	0001-4273			ACAD MANAGE J	Acad. Manage. J.		1974	17	3					514	527		10.2307/254654				14	Business; Management	Business & Economics	U0353	WOS:A1974U035300010					2019-01-18	
J	VANDEVEN, AH; DELBECQ, AL				VANDEVEN, AH; DELBECQ, AL			EFFECTIVENESS OF NOMINAL, DELPHI, AND INTERACTING GROUP DECISION MAKING PROCESSES	ACADEMY OF MANAGEMENT JOURNAL			English	Article									KENT STATE UNIV,GRAD SCH BUSINESS ADM,DEPT ADM SCI,KENT,OH 44240; UNIV WISCONSIN,GRAD SCH BUSINESS,MADISON,WI							BASS BM, 1970, J APPL BEHAV SCI, V6, P151, DOI 10.1177/002188637000600202; BOUCHARD TJ, 1970, J APPL PSYCHOL, V54, P51, DOI 10.1037/h0028621; CAMPBELL RM, 1966, THESIS U CALIFORNIA; CLARK TN, 1970, ADMINISTRATIVE SCIEN, V13, P1; DALKEY NC, 1963, MANAGEMENT SCIENCES, V9; DALKEY NC, 1969, DELPHI METHOD EXPTL; DALKEY NC, 1968, EXPT GROUP PREDICTIO; DELBECQ A, 1963, THESIS INDIANA U; Delbecq A. L., 1970, ACADEMY MANAGEMENT P, P208; DELBECQ AL, 1971, J APPL BEHAV SCI, V7, P466, DOI 10.1177/002188637100700404; DELBECQ AL, 1972, 3 AM I DEC SCIENT P, P1; DELBECQ AL, 1974, GROUP DECISION MAKIN; Deutsch M, 1949, HUM RELAT, V2, P199, DOI 10.1177/001872674900200301; FILLEY A, UNPUBLISHED PAPER; FLANAGAN JC, 1954, PSYCHOL BULL, V51, P327, DOI 10.1037/h0061470; GIBB JR, 1951, AM PSYCHOL, V6, P324; GREINER LE, 1970, ORG CHANGE DEV, P213; GUSTAFSON DH, 1973, ORGAN BEHAV HUM PERF, V9, P280, DOI 10.1016/0030-5073(73)90052-4; Hare AP, 1952, AM SOCIOL REV, V17, P261, DOI 10.2307/2088071; HARE AP, 1962, HDB SMALL GROUP RESE; MAIER NRF, 1964, PERS ADMIN, V27, P14; MAIER NRF, 1964, J APPLIED PSYCHOLOGY, V41, P310; MAIER NRF, 1952, HUMAN RELATIONS, V3, P155; SCHEFFE H, 1958, ANALYSIS VARIANCE; TORRANCE EP, 1957, SOC FORCES, V35, P314, DOI 10.2307/2573319; TURROFF M, 1970, TECHNOLOGICAL FORECA, V2, P149; UTTERBACK JM, 1971, ACAD MANAGE J, V14, P75, DOI 10.2307/254712; VANDEVEN A, 1971, ACAD MANAGE J, V14, P203, DOI 10.2307/255307; VANDEVEN A, 1972, J AM PUBLIC HLTH MAR, P337; VANDEVEN AH, 1974, GROUP DECISION MAKIN; VANDEVEN AH, 1972, 67 AM SOC ASS P ANN; Walster G. W., 1970, SOCIOL METHODOL, P246; WALSTER GW, UNPUBLISHED PAPER	33	265	265	1	23	ACAD MANAGEMENT	BRIARCLIFF MANOR	PACE UNIV, PO BOX 3020, 235 ELM RD, BRIARCLIFF MANOR, NY 10510-8020	0001-4273			ACAD MANAGE J	Acad. Manage. J.		1974	17	4					605	621		10.2307/255641				17	Business; Management	Business & Economics	U8538	WOS:A1974U853800001					2019-01-18	
J	SZILAGYI, AD; SIMS, HP				SZILAGYI, AD; SIMS, HP			EXPLORATION OF PATH-GOAL THEORY OF LEADERSHIP IN A HEALTH CARE ENVIRONMENT	ACADEMY OF MANAGEMENT JOURNAL			English	Article									UNIV HOUSTON,HOUSTON,TX 77004; INDIANA UNIV,BLOOMINGTON,IN							Bowers D, 1966, ADM SCI Q, V11, P238, DOI DOI 10.2307/2391247; COMREY AL, 1973, 1ST COURSE FACTOR AN; DESSLER G, 1972, 31ST AC MAN P ANN M, P178; EVANS MG, 1970, ORGAN BEHAV HUM PERF, V5, P277, DOI 10.1016/0030-5073(70)90021-8; FARRIS GF, 1969, J APPL PSYCHOL, V53, P490, DOI 10.1037/h0028666; Fiedler F. E., 1967, THEORY LEADERSHIP EF; FILLEY AC, 1969, MANAGERIAL PROCESS O; FLEISHMAN EA, 1957, LEADER BEHAVIOR ITS; GEORGOPOULOS BS, 1957, J APPL PSYCHOL, V41, P345, DOI 10.1037/h0048473; GEORGOPOULOS BS, 1972, ORGANIZATION RESEARC; GEORGOPOULOS BS, 1962, COMMUNITY GENERAL HO; GREENE C, 1973, 33RD ANN M AC MAN P, P433; HARMON HH, 1967, MODERN FACTOR ANALYS; HAYS WL, 1971, STATISTICS PROBABILI; HOLLANDER EP, 1969, PSYCHOL BULL, V71, P387, DOI 10.1037/h0027347; HOUSE RJ, 1971, ADMIN SCI QUART, V16, P321, DOI 10.2307/2391905; HOUSE RJ, 1972, ORGAN BEHAV HUM PERF, V7, P467, DOI 10.1016/0030-5073(72)90030-X; HOUSE RJ, 1971, ADMIN SCI QUART, V16, P19, DOI 10.2307/2391283; HOUSE RJ, 1972, STUDIES MANAGERIAL P; HOUSE RJ, UNPUBLISHED PAPER; HOUSE RJ, 1973, 2 LEAD S CONT APPR L; Kahn R. L., 1964, ORGANIZATIONAL STRES; KORMAN AK, 1966, PERS PSYCHOL, V19, P349, DOI 10.1111/j.1744-6570.1966.tb00310.x; KORMAN AK, UNPUBLISHED PAPER; Likert R., 1961, NEW PATTERNS MANAGEM; LOWIN A, 1968, ORGAN BEHAV HUM PERF, V3, P440, DOI 10.1016/0030-5073(68)90020-2; OAKLANDER H, 1964, ADMIN SCI QUART, V8, P520, DOI 10.2307/2391430; Porter L.W., 1968, MANAGERIAL ATTITUDES; RIZZO JR, 1970, ADMIN SCI QUART, V15, P150, DOI 10.2307/2391486; SAUNDERS DR, 1956, EDUC PSYCHOL MEAS, V16, P209, DOI 10.1177/001316445601600205; Smith P. C., 1969, MEASUREMENT SATISFAC; STOGDILL RM, 1965, MANUAL LEADER BEHAVI; STOGDILL RM, 1957, 88 OH STAT U BUR BUS; SZILAGYI AD, 1973, THESIS INDIANA U; YUKL G, 1971, ORGAN BEHAV HUM PERF, V6, P414, DOI 10.1016/0030-5073(71)90026-2; ZEDECK S, 1971, J APPL PSYCHOL, V55, P234, DOI 10.1037/h0031148; ZEDECK S, 1971, PSYCHOL BULL, V76, P295, DOI 10.1037/h0031543	37	32	32	1	13	ACAD MANAGEMENT	BRIARCLIFF MANOR	PACE UNIV, PO BOX 3020, 235 ELM RD, BRIARCLIFF MANOR, NY 10510-8020	0001-4273			ACAD MANAGE J	Acad. Manage. J.		1974	17	4					622	634		10.2307/255642				13	Business; Management	Business & Economics	U8538	WOS:A1974U853800002					2019-01-18	
J	LYON, HL; IVANCEVI.JM				LYON, HL; IVANCEVI.JM			EXPLORATORY INVESTIGATION OF ORGANIZATIONAL CLIMATE AND JOB SATISFACTION IN A HOSPITAL	ACADEMY OF MANAGEMENT JOURNAL			English	Article									UNIV KENTUCKY,COLL BUSINESS & ECON,DEPT BUSINESS ADM,LEXINGTON,KY 40506; UNIV HOUSTON,HOUSTON,TX							ALDERFER CP, 1969, ORGAN BEHAV HUM PERF, V4, P142, DOI 10.1016/0030-5073(69)90004-X; Brayfield AH, 1951, J APPL PSYCHOL, V35, P307, DOI 10.1037/h0055617; CAMPBELL JP, 1970, MANAGERIAL BEHAVIOR; CONNERS EJ, 1967, HOSPITALS, V41, P41; FARRAR DE, 1967, REV ECON STAT, V49, P92, DOI 10.2307/1937887; FERGUSON GA, 1959, STATISTICAL ANALYSIS; FOREHAND GA, 1964, PSYCHOL BULL, V62, P361, DOI 10.1037/h0045960; FRIEDLANDER F, 1969, PERS PSYCHOL, V22, P171, DOI 10.1111/j.1744-6570.1969.tb02300.x; GEORGE JR, 1971, ADMIN SCI QUART, V16, P467, DOI 10.2307/2391766; GEORGOPOULOS BS, 1972, ORGANIZATION RESEARC; GUION RM, 1973, ORGAN BEHAV HUM PERF, V9, P120, DOI 10.1016/0030-5073(73)90041-X; HALPIN AW, 1966, THEORY RESEARCH ADMI; HALPIN AW, 1963, ORGANIZATIONAL CLIMA; HELLRIEGEL D, 1974, ACAD MANAGE J, V17, P255, DOI 10.2307/254979; HREBINIAK LG, 1972, ADMIN SCI QUART, V17, P555, DOI 10.2307/2393833; JOHANNESSON RE, 1973, ORGAN BEHAV HUM PERF, V10, P118, DOI 10.1016/0030-5073(73)90008-1; JOHANNESSON RE, 1971, NEW DEVELOPMENTS MAN, P27; LIKERT R, 1967, HUMAN ORGANIZATION I; Likert R., 1961, NEW PATTERNS MANAGEM; LITWIN GH, 1968, MOTIVATION ORGANIZAT; LOCKE EA, 1969, ORGAN BEHAV HUM PERF, V4, P309, DOI 10.1016/0030-5073(69)90013-0; MARGULIES N, 1965, THESIS U CALIFORNIA; PACE CR, 1958, J EDUC PSYCHOL, V49, P269, DOI 10.1037/h0047828; PAYNE R, 1970, PERS PSYCHOL, V23, P251, DOI 10.1111/j.1744-6570.1970.tb01654.x; PAYNE RL, 1971, ORGAN BEHAV HUM PERF, V6, P77, DOI 10.1016/0030-5073(71)90006-7; PAYNE RL, 1973, ADMIN SCI QUART, V18, P515, DOI 10.2307/2392203; Porter L.W., 1968, MANAGERIAL ATTITUDES; PRITCHARD RD, 1973, ORGAN BEHAV HUM PERF, V9, P126, DOI 10.1016/0030-5073(73)90042-1; SCHNEIDER B, 1973, J APPL PSYCHOL, V57, P248, DOI 10.1037/h0034724; SCHNEIDER B, 1972, J APPL PSYCHOL, V56, P447, DOI 10.1037/h0033756; SCHNEIDER B, 1972, J APPL PSYCHOL, V56, P211, DOI 10.1037/h0033103; SLOCUM JW, 1972, NURS RES, V21, P338; Smith P. C., 1969, MEASUREMENT SATISFAC; Tagiuri R., 1968, ORGANIZATIONAL CLIMA, P9; THEIL H, 1962, ECONOMIC FORECASTS P; WANOUS JP, 1972, J APPL PSYCHOL, V56, P95, DOI 10.1037/h0032664	36	16	16	0	6	ACAD MANAGEMENT	BRIARCLIFF MANOR	PACE UNIV, PO BOX 3020, 235 ELM RD, BRIARCLIFF MANOR, NY 10510-8020	0001-4273			ACAD MANAGE J	Acad. Manage. J.		1974	17	4					635	648		10.2307/255643				14	Business; Management	Business & Economics	U8538	WOS:A1974U853800003					2019-01-18	
J	HREBINIAK, LG				HREBINIAK, LG			EFFECTS OF JOB LEVEL AND PARTICIPATION ON EMPLOYEE ATTITUDES AND PERCEPTIONS OF INFLUENCE	ACADEMY OF MANAGEMENT JOURNAL			English	Article									PENN STATE UNIV, UNIVERSITY PK, PA 16802 USA							ALUTTO JA, 1972, ADMIN SCI QUART, V17, P117, DOI 10.2307/2392100; ARGYRIS C, 1973, ADMIN SCI QUART, V18, P141, DOI 10.2307/2392060; Argyris C., 1964, INTEGRATING INDIVIDU; BLAU PM, 1962, FORMAL ORGANIZATIONS; CLARK JV, 1960, HUM ORGAN, V19, P199, DOI 10.17730/humo.19.4.c14n587k43570300; Coch L, 1948, HUM RELAT, V1, P512, DOI 10.1177/001872674800100408; HICKSON DJ, 1969, ADMIN SCI QUART, V14, P378, DOI 10.2307/2391134; HREBINIA.LG, 1973, ADMIN SCI QUART, V18, P365, DOI 10.2307/2391669; HREBINIAK LG, 1974, ADMIN SCI QUART, V19, P395, DOI 10.2307/2391980; HREBINIAK LG, 1972, ADMIN SCI QUART, V17, P555, DOI 10.2307/2393833; HREBINIAK LG, 1973, J APPL PSYCHOL, V58, P381, DOI 10.1037/h0036301; HREBINIAK LG, 1974, JOB CHARACTERISTICS; HUNT RG, 1970, ACAD MANAGE J, V13, P235, DOI 10.2307/254962; Hurwitz J.I., 1953, GROUP DYNAMICS RES T, P483; Kelley HH, 1951, HUM RELAT, V4, P39, DOI 10.1177/001872675100400102; Likert R., 1961, NEW PATTERNS MANAGEM; March J. G., 1958, ORGANIZATIONS; MARCUS PM, 1973, ADMIN SCI QUART, V18, P209, DOI 10.2307/2392064; MOHR LB, 1971, ADMIN SCI QUART, V16, P444, DOI 10.2307/2391764; MORSE NC, 1956, J ABNORM SOC PSYCH, V52, P120, DOI 10.1037/h0048893; Patchen M., 1970, PARTICIPATION ACHIEV; Perrow C., 1965, HDB ORG, P910; Porter L.W., 1968, MANAGERIAL ATTITUDES; PORTER LW, 1962, J APPL PSYCHOL, V46, P375, DOI 10.1037/h0047808; PORTER LW, 1961, J APPL PSYCHOL, V45, P1, DOI 10.1037/h0043121; SLOCUM JW, 1971, J APPL PSYCHOL, V55, P312, DOI 10.1037/h0031537; SUSMAN GI, 1973, IND RELAT, V12, P1, DOI 10.1111/j.1468-232X.1973.tb00530.x; TANNENBAUM AS, 1961, AM J SOCIOL, V67, P33, DOI 10.1086/223048; TANNENBAUM AS, 1968, CONTROL ORGANIZATION; TANNENBAUM AS, 1966, SOCIAL PSYCHOLOGY WO; THOMPSON JD, 1967, ORGANIZATIONS ACTION; TRICE HM, 1969, IND LABOR RELAT REV, V23, P40, DOI 10.2307/2521970; WALL TD, 1973, J APPL PSYCHOL, V58, P322, DOI 10.1037/h0036227; White R K, 1960, AUTOCRACY DEMOCRACY	34	98	101	1	8	ACAD MANAGEMENT	BRIARCLIFF MANOR	PACE UNIV, PO BOX 3020, 235 ELM RD, BRIARCLIFF MANOR, NY 10510-8020 USA	0001-4273	1948-0989		ACAD MANAGE J	Acad. Manage. J.		1974	17	4					649	662		10.2307/255644				14	Business; Management	Business & Economics	U8538	WOS:A1974U853800004					2019-01-18	
J	WEBB, RJ				WEBB, RJ			ORGANIZATIONAL EFFECTIVENESS AND VOLUNTARY ORGANIZATION	ACADEMY OF MANAGEMENT JOURNAL			English	Article									ABADAN INST TECHNOL,ABADAN,IRAN							BABCHUK N, 1969, AM SOCIOL REV, V34, P31, DOI 10.2307/2092785; ETZIONI A, 1960, ADMIN SCI QUART, V5, P257, DOI 10.2307/2390780; ETZIONI A, 1964, MODERN ORGANIZATIONS; GANNON MJ, 1971, AUG P AC MAN ATL, P254; GHORPADE J, 1971, ASSESSMENT ORGANIZAT; Hadden Jeffrey K., 1969, GATHERING STORM CHUR; HARRISON PM, 1959, AUTHORITY POWER FREE; HOUSE RJ, 1972, J APPL PSYCHOL, V56, P388, DOI 10.1037/h0033444; KISH L, 1967, SURVEY SAMPLING; LARSON B, 1970, EMERGING CHURCH; LEITCH DP, 1968, P EXECUTIVE STUDY C; MAHONEY TA, 1969, ADMIN SCI QUART, V14, P357, DOI 10.2307/2391131; MAHONEY TA, 1967, MANAGE SCI, V14, pB76; MCMAHON JT, 1971, ACADEMY MANAGEMENT P, P240; METZ DL, 1967, NEW CONGREGATIONS SE; Mott P. E., 1972, CHARACTERISTICS EFFE; PAINE FT, UNPUBLISHED PAPER; PARSONS T, 1956, ADMIN SCI QUART, V1, P63, DOI 10.2307/2390840; PERROW C, 1961, AM SOCIOL REV, V26, P859; PRICE JL, 1972, SOCIOL QUART, V13, P3, DOI 10.1111/j.1533-8525.1972.tb02100.x; PRICE JL, 1968, ORGANIZATIONAL EFFEC; RICHARDS LO, 1970, NEW FACE CHURCH; Schaeffer Francis A., 1970, CHURCH END 20 CENTUR; WILENSKY HL, 1961, AGING LEISURE	24	27	27	0	1	ACAD MANAGEMENT	BRIARCLIFF MANOR	PACE UNIV, PO BOX 3020, 235 ELM RD, BRIARCLIFF MANOR, NY 10510-8020	0001-4273			ACAD MANAGE J	Acad. Manage. J.		1974	17	4					663	677		10.2307/255645				15	Business; Management	Business & Economics	U8538	WOS:A1974U853800005					2019-01-18	
J	FEUILLE, P; BLANDIN, J				FEUILLE, P; BLANDIN, J			FACULTY JOB SATISFACTION AND BARGAINING SENTIMENTS - CASE STUDY	ACADEMY OF MANAGEMENT JOURNAL			English	Article									SUNY, SCH MANAGEMENT, BUFFALO, NY 14214 USA; USN, NAVY MANAGEMENT SYST CTR, POSTGRAD SCH, MONTEREY, CA USA							ADELL BL, 1972, COLLECTIVE BARGAININ; AUSSIEKER B, 1973, IND RELAT, V12, P117, DOI 10.1111/j.1468-232X.1973.tb00541.x; BEGIN JP, 1973, ACADEMICS BARGAINING; BELASCO JA, 1969, IND RELAT, V9, P67, DOI 10.1111/j.1468-232X.1969.tb00493.x; *CIT U NEW YORK BA, 1973, NEWSLETT, V1; GARBARINO JW, 1972, IND RELAT, V11, P1, DOI 10.1111/j.1468-232X.1972.tb00033.x; GARBARINO JW, 1973, FACULTY UNIONS COLLE, P1; HELLRIEGEL D, 1970, IND LABOR RELAT REV, V23, P380, DOI 10.2307/2522112; Ladd Jr Everett Carl, 1973, PROFESSORS UNIONS AM; MORTIMER KP, 1973, FACULTY UNIONS COLLE, P108; PEZDEK RV, 1973, PUBLIC EMPLOYMENT 11; PUFFER WC, 1973, FACULTY UNIONS COLLE, P217; SANDS CD, 1971, WISC LAW REV, P150; WOLLETT DH, 1971, WISC LAW REV, P2; 1973, AAUP ACTION, V9; 1972, OREGON TODAY NEWS U, V5	16	36	36	0	7	ACAD MANAGEMENT	BRIARCLIFF MANOR	PACE UNIV, PO BOX 3020, 235 ELM RD, BRIARCLIFF MANOR, NY 10510-8020 USA	0001-4273			ACAD MANAGE J	Acad. Manage. J.		1974	17	4					678	692		10.2307/255646				15	Business; Management	Business & Economics	U8538	WOS:A1974U853800006					2019-01-18	
J	REIMANN, BC				REIMANN, BC			DIMENSIONS OF STRUCTURE IN EFFECTIVE ORGANIZATIONS - SOME EMPIRICAL EVIDENCE	ACADEMY OF MANAGEMENT JOURNAL			English	Article									UNIV PENN,WHARTON SCH,PHILADELPHIA,PA 19104							Burns T, 1961, MANAGEMENT INNOVATIO; CHILD J, 1972, ADMIN SCI QUART, V17, P163, DOI 10.2307/2393951; Gerth H. H., 1948, M WEBER ESSAYS SOCIO; HALL RH, 1963, AM J SOCIOL, V69, P32, DOI 10.1086/223508; INKSON JHK, 1970, ADMIN SCI QUART, V15, P318, DOI 10.2307/2391622; JOHNSON SC, 1967, PSYCHOMETRIKA, V32, P241, DOI 10.1007/BF02289588; KATZ D, 1966, SOCIAL PSYCHOLOGY; LAWRENCE PR, 1969, ORGANIZATION ENVIRON; NEGANDHI A, 1971, COMPARATIVE MANAGEME; PUGH DS, 1968, ADMIN SCI QUART, V13, P65, DOI 10.2307/2391262; REIMANN BC, 1973, ADM SCI Q, V18, P464; SAMUEL Y, 1970, ADMIN SCI QUART, V15, P216, DOI 10.2307/2391492; WOODWARD J, 1965, INDUSTRIAL ORGANIZAT	13	24	24	0	5	ACAD MANAGEMENT	BRIARCLIFF MANOR	PACE UNIV, PO BOX 3020, 235 ELM RD, BRIARCLIFF MANOR, NY 10510-8020	0001-4273			ACAD MANAGE J	Acad. Manage. J.		1974	17	4					693	708		10.2307/255647				16	Business; Management	Business & Economics	U8538	WOS:A1974U853800007					2019-01-18	
J	MORSE, EV; GORDON, G				MORSE, EV; GORDON, G			COGNITIVE SKILLS - DETERMINANT OF SCIENTISTS LOCAL-COSMOPOLITAN ORIENTATION	ACADEMY OF MANAGEMENT JOURNAL			English	Article									TULANE UNIV,NEW ORLEANS,LA 70118; CORNELL UNIV,ITHACA,NY							BLAU PM, 1962, FORMAL ORGANIZATIONS; DAVIS RC, 1956, THESIS U MICHIGAN; GLASER BG, 1963, AM J SOCIOL, V69, P249, DOI 10.1086/223583; GORDON G, 1969, ACAEMY MANAGEMENT J, V12, P37; GORDON G, 1963, 20 P NAT C ADM RES, P15; GOULDNER AW, 1957, ADMIN SCI QUART, V2, P281, DOI 10.2307/2391000; GRIMES AJ, 1970, ADMIN SCI QUART, V15, P407, DOI 10.2307/2391332; HIRSCH W, 1968, SCIENTISTS AM SOC; HOMANS GC, 1961, SOCIAL BEHAVIOR ITS; KORNHAUSER W, 1962, SCIENTISTS INDUSTRY; MEDNICK S, 1966, MANUAL REMOTE ASSOCI; MEDNICK SA, 1962, PSYCHOL REV, V69, P220, DOI 10.1037/h0048850; Merton Robert King, 1957, SOCIAL THEORY SOCIAL; PELZ DC, 1966, SCIENTISTS ORGANIZAT, P91; PELZ DC, 1966, SCIENTISTS ORGANIZAT; SHEPARD HA, 1956, ADMIN SCI QUART, V1, P295, DOI 10.2307/2390925; Siegel S., 1956, NONPARAMETRIC STATIS; THOMPSON VA, 1965, ADMIN SCI QUART, V10, P1, DOI 10.2307/2391646; THORNTON R, 1970, ADMIN SCI QUART, V15, P417, DOI 10.2307/2391333; WILENSKY HL, 1959, INTELLECTUALS LABOR	20	9	9	0	2	ACAD MANAGEMENT	BRIARCLIFF MANOR	PACE UNIV, PO BOX 3020, 235 ELM RD, BRIARCLIFF MANOR, NY 10510-8020	0001-4273			ACAD MANAGE J	Acad. Manage. J.		1974	17	4					709	723		10.2307/255648				15	Business; Management	Business & Economics	U8538	WOS:A1974U853800008					2019-01-18	
J	DUNCAN, WJ				DUNCAN, WJ			TRANSFERRING MANAGEMENT THEORY TO PRACTICE	ACADEMY OF MANAGEMENT JOURNAL			English	Article									UNIV ALABAMA,BIRMINGHAM,AL 35233							BARZEL Y, 1968, REV ECON STAT, V50, P348, DOI 10.2307/1937928; BENNIS WG, 1965, J APPL BEHAV SCI, V1, P337, DOI 10.1177/002188636500100404; Berlo DK, 1960, PROCESS COMMUNICATIO; BROOKS H, 1965, DAEDALUS, V94, P66; CHURCHMAN CW, 1965, MANAGE SCI, V11, pB69; CHURCHMAN CW, 1964, CALIFORNIA MANAGEMEN, V6, P31; DUNCAN WJ, 1972, ACAD MANAGE J, V15, P273, DOI 10.2307/254853; DUNCAN WJ, 1972, PERS J, V51, P518; DUNCAN WJ, 1970, ACAD MANAGE J, V13, P216, DOI 10.2307/255110; DUNCAN WJ, 1970, ACAD MANAGE J, V13, P337, DOI 10.2307/254969; DUNCAN WJ, 1974, MANAGE SCI B-APPL, V20, P1157, DOI 10.1287/mnsc.20.8.1157; Duncan WJ, 1973, J BUS COMMUN, V11, P3; DUNCAN WJ, 1972, SO J BUSINESS, V7, P1; DUNCAN WJ, 1971, MANAGEMENT INT REV, P19; DYCKMAN TR, 1967, MANAGE SCI, V13, pB612; FORSGREN RA, 1969, ACAD MANAGE J, V12, P105; GOULDNER AW, 1956, SOC PROBL, V3, P169, DOI 10.1525/sp.1956.3.3.03a00050; GUBA EG, 1968, EDUC LEADERSHIP, V25, P292; GUETZKOW H, 1959, ADMIN SCI QUART, V4, P68, DOI 10.2307/2390649; Havelock R. G., 1969, PLANNING INNOVATION; HICKS HG, 1967, ACAD MANAGE J, V10, P371, DOI 10.2307/255270; HOUSE RJ, 1966, MANAGE INT REV, P97; KATZ E, 1963, AM SOCIOL REV, V28, P237, DOI 10.2307/2090611; KERLINGER FN, 1969, FOUNDATIONS BEHAVIOR; KNIGHT KE, 1967, J BUS, V40, P478, DOI 10.1086/295013; LADD DE, 1965, MANAGE SCI, V12, pB24; NAGEL E, 1956, LOGIC WITHOUT METAPH; ODIORNE GS, 1966, ACAD MANAGE J, V9, P109, DOI 10.2307/255028; OHMANN EA, 1957, HARVARD BUSINESS REV, V3, P41; PETHIA RF, 1969, AUG P AC MAN, P145; ROOMKIN M, 1970, MEMBERSHIP PROFILE A; SAPOLSKY HM, 1967, J BUS, V40, P497, DOI 10.1086/295014; SHEPARD HA, 1967, J BUS, V40, P470, DOI 10.1086/295012; SIMON JL, 1967, J BUS, V40, P385, DOI 10.1086/295004; THOMPSON JD, 1967, ORGANIZATIONS ACTION; WILSON J, 1960, APPROACHES ORGANIZAT; WILSON JQ, 1961, ADM SCI Q, V6, P129	37	29	29	0	8	ACAD MANAGEMENT	BRIARCLIFF MANOR	PACE UNIV, PO BOX 3020, 235 ELM RD, BRIARCLIFF MANOR, NY 10510-8020	0001-4273			ACAD MANAGE J	Acad. Manage. J.		1974	17	4					724	738		10.2307/255649				15	Business; Management	Business & Economics	U8538	WOS:A1974U853800009					2019-01-18	
J	GREENBAUM, HH				GREENBAUM, HH			AUDIT OF ORGANIZATIONAL COMMUNICATION	ACADEMY OF MANAGEMENT JOURNAL			English	Article									MOTOR PARTS IND INC, MELVILLE, NY USA; HOFSTRA UNIV, HEMPSTEAD, NY USA							AYRES HJ, 1972, INT COMMUNICATION AS; BARNARD C., 1938, FUNCTIONS EXECUTIVE; Bavelas A., 1951, PERSONNEL, V27, P366; BERLO DK, UNPUBLISHED PAPER; CARL RE, 1970, J BUS COMMUN, V8, P5; CARTER RM, 1972, COMMUNICATION ORGANI; DORSEY JT, 1957, ADMIN SCI QUART, V2, P307, DOI 10.2307/2391001; DOWNS CW, 1969, ANNUAL CONVENTION SP; FARACE RV, 1972, INT COMMUNICATION AS, P16; GREENBAUM HH, 1972, J BUS COMMUN, V10, P39; GUETZKOW H., 1965, HDB ORG, P534; KATZ D, 1966, SOCIAL PSYCHOLOGY OR; KIRKPATRICK DL, 1972, PERS J, V51, P279; LEVEL DA, 1959, THESIS PURDUE U; LIKERT R, 1967, HUMAN ORGANIZATION; MERRIHUE W, 1960, MANAGING COMMUNICATI; NILSEN TR, 1953, THESIS NW U; PRICE JL, 1968, ORGANIZATIONAL EFFEC; REDDING CW, 1966, FRONTIERS EXPTL SPEE, P47; REDDING CW, 1967, POSITION PAPER RESPO; REDDING CW, 1972, COMMUNICATION WITHIN; Richetto Gary, 1967, C ORGANIZATIONAL COM, P4; SANBORN GA, 1961, THESIS PURDUE U; SEYBOLD G, 1966, EMPLOYEE COMMUNICATI; SIGBAND NB, 1969, ADV MANAGE J, V34, P61; SPATARO L, 1969, J BUS COMMUN, V6, P6; THAYER L, 1968, COMMUNICATION COMMUN; TOWNSEND LA, 1965, J COMMUN, V15, P208, DOI 10.1111/j.1460-2466.1965.tb01342.x	28	19	19	1	6	ACAD MANAGEMENT	BRIARCLIFF MANOR	PACE UNIV, PO BOX 3020, 235 ELM RD, BRIARCLIFF MANOR, NY 10510-8020 USA	0001-4273	1948-0989		ACAD MANAGE J	Acad. Manage. J.		1974	17	4					739	754		10.2307/255650				16	Business; Management	Business & Economics	U8538	WOS:A1974U853800010					2019-01-18	
J	MOAN, FE				MOAN, FE			DOES MANAGEMENT PRACTICE LAG BEHIND THEORY IN COMPUTER ENVIRONMENT	ACADEMY OF MANAGEMENT JOURNAL			English	Article									PENN STATE UNIV,CAPITOL CAMPUS,MIDDLETOWN,PA 17057							BAUM B, 1969, ACAD MANAGE J, V12, P279, DOI 10.2307/255176; BURACK EH, 1966, BUSINESS QUART, V30; Drucker P, 1968, AGE DISCONTINUITY; MOAN FE, 1970, THESIS U MICHIGAN; 1971, BUSINESS WEEK   0605, P59	5	5	5	0	1	ACAD MANAGEMENT	BRIARCLIFF MANOR	PACE UNIV, PO BOX 3020, 235 ELM RD, BRIARCLIFF MANOR, NY 10510-8020	0001-4273			ACAD MANAGE J	Acad. Manage. J.		1973	16	1					7	23		10.2307/255038				17	Business; Management	Business & Economics	R2929	WOS:A1973R292900001					2019-01-18	
J	YOUSSEF, SM				YOUSSEF, SM			INTEGRATION OF LOCAL NATIONALS INTO MANAGERIAL HIERARCHY OF AMERICAN OVERSEAS SUBSIDIARIES - EXPLORATORY STUDY	ACADEMY OF MANAGEMENT JOURNAL			English	Article									WESTERN ILLINOIS UNIV,MACOMB,IL 61455							Badre Albert Y., 1959, MANPOWER OIL ARAB CO; FFORDE JS, 1957, INT TRADE MANAGERIAL; HARBISON F, 1959, MANAGEMENT INDUSTRIA; HARBISON F, 1965, MANPOWER EDUCATION C; MCMILLAN C, 1964, INT ENTERPRISE DEVEL; MIKESELL RF, 1962, US PRIVATE GOVERNMEN; MYERS C, 1965, EDUCATION NATIONAL D; *PAN AM UN ORG AM, 1961, STATEMENT LAWS MEXIC; *PAN AM UN ORG AM, 1963, STATEMENT LAWS ARGEN; SHEARER JC, 1960, 98 PRINC U IND REL S; YOUSSEF SM, 1971, THESIS U IOWA	11	12	12	0	1	ACAD MANAGEMENT	BRIARCLIFF MANOR	PACE UNIV, PO BOX 3020, 235 ELM RD, BRIARCLIFF MANOR, NY 10510-8020	0001-4273			ACAD MANAGE J	Acad. Manage. J.		1973	16	1					24	34		10.2307/255039				11	Business; Management	Business & Economics	R2929	WOS:A1973R292900002					2019-01-18	
J	SCHUSTER, JR; COLLETTI, JA				SCHUSTER, JR; COLLETTI, JA			PAY SECRECY - WHO IS FOR AND AGAINST IT	ACADEMY OF MANAGEMENT JOURNAL			English	Article									HEWITT ASSOC,LOS ANGELES,CA 90000; ST MARYS COLL,SCH BUSINESS ADM,WINONA,MN 55987; UNIV SO CALIF,LOS ANGELES,CA 90007							LAWLER EE, 1968, PSYCHOL BULL, V70, P596, DOI 10.1037/h0026848; LAWLER EE, 1967, ORGANIZATIONAL BEHAV, V2; LAWLER EE, 1967, INDUSTRIAL RELATIONS, V7; Porter L.W., 1968, MANAGERIAL ATTITUDES; PORTER LW, 1969, JUL MAN SEM PAY COND; SCHUSTER JR, 1970, PERS PSYCHOL, V23, P591; SCHUSTER JR, 1970, BUSINESS PERSPECTIVE, V6, P3	7	11	11	0	8	ACAD MANAGEMENT	BRIARCLIFF MANOR	PACE UNIV, PO BOX 3020, 235 ELM RD, BRIARCLIFF MANOR, NY 10510-8020	0001-4273			ACAD MANAGE J	Acad. Manage. J.		1973	16	1					35	40		10.2307/255040				6	Business; Management	Business & Economics	R2929	WOS:A1973R292900003					2019-01-18	
J	MITCHELL, TR; KNUDSEN, BW				MITCHELL, TR; KNUDSEN, BW			INSTRUMENTALITY THEORY PREDICTIONS OF STUDENTS ATTITUDES TOWARDS BUSINESS AND THEIR CHOICE OF BUSINESS AS AN OCCUPATION	ACADEMY OF MANAGEMENT JOURNAL			English	Article									UNIV WASHINGTON,SEATTLE,WA 98105							AJZEN I, 1969, J EXP SOC PSYCHOL, V5, P400, DOI 10.1016/0022-1031(69)90033-X; BECKER GM, 1967, ANNU REV PSYCHOL, V18, P239, DOI 10.1146/annurev.ps.18.020167.001323; CAMPBELL DP, 1969, PERS GUID J, V47, P521, DOI 10.1002/j.2164-4918.1969.tb02952.x; CAMPBELL DT, 1963, EXPTL QUASI EXPTL DE; CRITES JO, 1969, VOCATIONAL PSYCHOLOG; DAVIS J, 1965, UNDERGRADUATE CAREER; DAVIS JA, 1964, GREAT ASPIRATIONS; DULANY DE, 1967, VERBAL BEHAVIOR GENE; EDWARDS W, 1961, ANNU REV PSYCHOL, V12, P473, DOI 10.1146/annurev.ps.12.020161.002353; EWEN RB, 1967, J APPL PSYCHOL, V51, P68, DOI 10.1037/h0024243; Fishbein M., 1967, READINGS ATTITUDE TH; Fishbein M., 1965, CURRENT STUDIES SOCI; GRAEN G, 1969, J APPLIED PSYCHOLO 2, V53; HOLLAND JL, 1968, PERS GUID J, V46, P428, DOI 10.1002/j.2164-4918.1968.tb03209.x; HOPPOCK R, 1967, OCCUPATIONAL INFORMA; HUBER GP, 1971, ORGANIZATIONAL BEHAV, V6; IVEY AE, 1963, VOCAT GUID QUART, V11, P121; LAWLER EE, 1967, ORGAN BEHAV HUM PERF, V2, P122, DOI 10.1016/0030-5073(67)90026-8; LEE SM, 1970, PERS J, V49, P392; *LIF INS AG MAN AS, 1967, COLL STUD ATT LIF IN; MIKES P, 1968, J APPLIED PSYCHOLOGY, V53, P394; MITCHELL TR, 1971, PSYCHOL BULL, V76, P432, DOI 10.1037/h0031831; MITCHELL TR, 1972, ORGAN BEHAV HUM PERF, V8, P1, DOI 10.1016/0030-5073(72)90033-5; MITCHELL TR, 1972, INSTRUMENTALITY THEO, V2; Osgood C.E., 1957, MEASUREMENT MEANING; PIETERS GR, 1968, 76TH P ANN CONV AM P, V3, P573; Porter L.W., 1968, MANAGERIAL ATTITUDES; ROSENBERG M, 1957, OCCUPATIONS VALUES; ROSENBERG MJ, 1956, J ABNORM SOC PSYCH, V53, P367, DOI 10.1037/h0044579; SHEARD JL, 1970, J APPL PSYCHOL, V54, P248, DOI 10.1037/h0029259; VROOM VH, 1971, ORGAN BEHAV HUM PERF, V6, P36, DOI 10.1016/0030-5073(71)90004-3; VROOM VH, 1964, WORK MOTIVATION; VROOM VH, 1966, ORGANIZATIONAL BEHAV, V1; WHITNEY DR, 1969, PERS GUID J, V48, P279, DOI 10.1002/j.2164-4918.1969.tb03318.x; WILLIAMSON EG, 1939, HOW COUNSEL STUDENTS; 1966, NEWSWEEK        0502, P84	36	47	47	0	2	ACAD MANAGEMENT	BRIARCLIFF MANOR	PACE UNIV, PO BOX 3020, 235 ELM RD, BRIARCLIFF MANOR, NY 10510-8020	0001-4273			ACAD MANAGE J	Acad. Manage. J.		1973	16	1					41	52		10.2307/255041				12	Business; Management	Business & Economics	R2929	WOS:A1973R292900004					2019-01-18	
J	ALTIMUS, CA; TERSINE, RJ				ALTIMUS, CA; TERSINE, RJ			CHRONOLOGICAL AGE AND JOB SATISFACTION - YOUNG BLUE COLLAR WORKER	ACADEMY OF MANAGEMENT JOURNAL			English	Article									OLD DOMINION UNIV,NORFOLK,VA 23508							BERNBERG RE, 1954, PERSONAL PSYCHOL, V7, P393; EVANS MG, 1969, J APPL PSYCHOL, V53, P102, DOI 10.1037/h0027098; FAUNCE WA, 1969, COMPARATIVE PERSPECT; GIBSON JL, 1970, ACAD MANAGE J, V13, P411, DOI 10.2307/254831; GLUSKINOS WM, 1971, PERSONNEL PSYCHOL, V24, P239; Herzberg F., 1957, JOB ATTITUDES REV OP; HULIN CL, 1965, J APPL PSYCHOL, V49, P209, DOI 10.1037/h0022164; KLUCKHOLN C, 1965, CULTURE BEHAVIOR; PORTER L W, 1965, Psychol Bull, V64, P23, DOI 10.1037/h0022166; PORTER LW, 1961, J APPL PSYCHOL, V45, P1, DOI 10.1037/h0043121; ROSEN NA, 1969, LEADERSHIP CHANGE WO; SALEH SD, 1964, PERS PSYCHOL, V17, P425, DOI 10.1111/j.1744-6570.1964.tb00077.x; SMITH DH, 1966, SOCIOMETRY, V29, P353, DOI 10.2307/2786293; Smith P. C., 1969, MEASUREMENT SATISFAC; VROOM VH, 1964, WORK MOTIVATION; WEINER M, 1966, MODERNIZATION; 1970, FORTUNE          SEP, P158; 1970, FORTUNE          JUL, P112; 1970, FORTUNE          JUL, P69; 1970, FORTUNE          SEP, P133	20	23	23	0	29	ACAD MANAGEMENT	BRIARCLIFF MANOR	PACE UNIV, PO BOX 3020, 235 ELM RD, BRIARCLIFF MANOR, NY 10510-8020	0001-4273			ACAD MANAGE J	Acad. Manage. J.		1973	16	1					53	66		10.2307/255042				14	Business; Management	Business & Economics	R2929	WOS:A1973R292900005					2019-01-18	
J	KELLEY, L; REESER, C				KELLEY, L; REESER, C			PERSISTENCE OF CULTURE AS A DETERMINANT OF DIFFERENTIATED ATTITUDES ON PART OF AMERICAN MANAGERS OF JAPANESE ANCESTRY	ACADEMY OF MANAGEMENT JOURNAL			English	Article									UNIV HAWAII,HONOLULU,HI 96822							BROWN W, 1969, CULTURE MANAGEMENT T; DOYUKAI K, 1960, BIG BUSINESS EXECUTI; DRUCKER PF, 1971, HARVARD BUS REV, V49, P110; FROOMKIN JN, 1964, ACAD MANAGE J, V7, P71, DOI 10.2307/255235; GLAZER H, 1968, INT BUSINESSMAN JAPA; HELLER FA, 1966, OCCUP PSYCHOL, V40, P1; INKELES A, 1956, AM J SOCIOLOGY, V61; LAUTER GP, 1969, ACAD MANAGE J, V12, P367, DOI 10.2307/255183; MCCANN EC, 1964, ACAD MANAGE J, V7, P149, DOI 10.2307/255023; NODA K, 1968, MANAGEMENT INT REV, V8; OBERG W, 1963, ACAD MANAGE J, V6, P129, DOI 10.2307/254843; RAMSEY CE, 1960, AM J SOCIOLOGY, V65; SLOCUM JW, 1971, ACAD MANAGE J, V14, P89, DOI 10.2307/254713; Smith Thomas, 1959, AGRARIAN ORIGINS MOD; TSUTOMU O, 1964, BIJINESU MAN; VOGEL E, 1971, COMPARATIVE MANAGEME; WHITEHILL AM, 1964, J APPL PSYCHOL, V48, P69, DOI 10.1037/h0040195; WHITEHILL AM, 1968, OTHER WORKER	18	17	17	0	1	ACAD MANAGEMENT	BRIARCLIFF MANOR	PACE UNIV, PO BOX 3020, 235 ELM RD, BRIARCLIFF MANOR, NY 10510-8020	0001-4273			ACAD MANAGE J	Acad. Manage. J.		1973	16	1					67	76		10.2307/255043				10	Business; Management	Business & Economics	R2929	WOS:A1973R292900006					2019-01-18	
J	SHAAK, PC; SCHWARTZ, MM				SHAAK, PC; SCHWARTZ, MM			UNIFORMITY OF POLICY INTERPRETATION AMONG MANAGERS IN UTILITY INDUSTRY	ACADEMY OF MANAGEMENT JOURNAL			English	Article									RUTGERS STATE UNIV,GRAD SCH BUSINESS ADM,NEW BRUNSWICK,NJ 08903							CALHOUN RP, 1963, MANAGING PERSONNEL; Davis R. C., 1951, FUNDAMENTALS TOP MAN; MAIER NRF, 1956, J APPL PSYCHOL, V40, P319, DOI 10.1037/h0040379; Odiorne G. S., 1963, PERSONNEL POLICY ISS	4	2	2	0	1	ACAD MANAGEMENT	BRIARCLIFF MANOR	PACE UNIV, PO BOX 3020, 235 ELM RD, BRIARCLIFF MANOR, NY 10510-8020	0001-4273			ACAD MANAGE J	Acad. Manage. J.		1973	16	1					77	83		10.2307/255044				7	Business; Management	Business & Economics	R2929	WOS:A1973R292900007					2019-01-18	
J	BUTLER, AG				BUTLER, AG			PROJECT MANAGEMENT - STUDY IN ORGANIZATIONAL CONFLICT	ACADEMY OF MANAGEMENT JOURNAL			English	Article									GEORGIA SO COLL,SCH BUSINESS,DEPT MANAGEMENT,STATESBORO,GA 30458							Allport F. H., 1933, INSTITUTIONAL BEHAVI; ARGYRIS C, 1969, HUMAN RELATIONS ORGA; BARNES LB, 1964, ADMINISTERING RESEAR; BAUMGARTEL H, 1956, J SOC ISSUES, V12, P24, DOI 10.1111/j.1540-4560.1956.tb00365.x; BELASCO JA, 1969, ACAD MANAGE J, V12, P469, DOI 10.2307/254735; BENNIS WG, 1966, CHANGING ORGANIZATIO; Bernard J, 1950, AM J SOCIOL, V56, P11, DOI 10.1086/220638; BLAU PM, 1962, FORMAL ORGANIZATIONS; BLAUNER R, 1960, LABOR TRADE UNIONISM; BOULDING E, 1961, CONFLICT MANAGEMENT; BOULDING KE, 1961, CONFLICT MANAGEMENT; Boulding Kenneth, 1962, CONFLICT DEFENSE; Burns T, 1961, MANAGEMENT INNOVATIO; CAPLOW T, 1958, ACADEMIC MARKETPLACE; Chin R, 1969, PLANNING CHANGE; Clark Burton R., 1966, PROFESSIONALIZATION; CLELAND DI, 1968, SYSTEMS ANALYSIS PRO; COMMONS JR, 1934, I ECONOMICS; Coser Lewis, 1956, FUNCTIONS SOCIAL CON; Crozier Michel, 1964, BUREAUCRATIC PHENOME; Dahrendorf R, 1959, CLASS CLASS CONFLICT; DAVIS K, 1968, ACAD MANAGE J, V11, P27, DOI 10.2307/255194; Davis K, 1967, HUMAN RELATIONS WORK; ENGEL GV, 1970, ADMIN SCI QUART, V15, P12, DOI 10.2307/2391182; FAYOL H, 1949, GENERAL INDUSTRIAL M; FREIDSON E, 1965, ADMIN SCI QUART, V10, P107, DOI 10.2307/2391653; GADDIS PO, 1959, HARVARD BUS REV, V37, P89; Glaser B. G., 1965, AWARENESS DYING; GOMBERG W, 1966, T, V4, P30; GOULDNER AW, 1958, ADMIN SCI QUART, V2, P444, DOI 10.2307/2390795; GOULDNER AW, 1957, ADMIN SCI QUART, V2, P281, DOI 10.2307/2391000; GREENWOOD E, 1956, SOCIAL WORK, V2, P44; GROSS E, 1969, HUMAN RELATIONS ORGA; GULICK L, 1937, PAPERS SCIENCE ADMIN; HALL DT, 1970, ADMIN SCI QUART, V15, P271, DOI 10.2307/2391616; Herzberg F, 1959, MOTIVATION WORK; Hughes E.C., 1958, MEN THEIR WORK; Kahn R. L., 1964, ORGANIZATIONAL STRES; KAHN RL, 1956, J SOCIAL ISSUES, V12; KAPLAN N, 1960, IRE T PROFESSIONAL G, VEM 7, P24; KAST F, 1963, SCIENCE TECHNOLOGY M; KATZ D, 1961, CONFLICT MANAGEMENT; KATZ D, 1966, SOCIAL PSYCHOLOGY; KORNHAUSER W, 1962, SCIENTISTS INDUSTRY; LAZARSFELD PF, 1958, ACADEMIC MIND; LEAVITT HJ, 1964, MANAGERIAL PSYCHOLOG; LIKERT R, 1967, HUMAN ORGANIZATION I; LITTERER JA, 1965, ANALYSIS ORGANIZATIO; March J. G., 1958, ORGANIZATIONS; Marvick D., 1954, CAREER PERSPECTIVES; McGregor D, 1960, HUMAN SIDE ENTERPRIS; Merton R., 1957, SOCIAL THEORY STRUCT; Moore DG, 1955, J BUS, V28, P58, DOI 10.1086/294059; *OP RES CORP, 1959, CONFLICT BETWEEN SCI; PALTRIDGE JG, 1971, CALIF MANAGE REV, V13, P85, DOI 10.2307/41164297; Parsons T., 1960, STRUCTURE PROCESS MO; Peck M. J., 1962, WEAPONS ACQUISITION; PELZ DC, 1956, ADMIN SCI QUART, V1, P310, DOI 10.2307/2390926; PELZ DC, 1965, TRANS-ACT-SOC SCI MO, V2, P32; PONDY LR, 1966, ACAD MANAGE J, V9, P246, DOI 10.2307/255122; PONDY LR, 1969, ADMINISTRATIVE SCIEN, V14; REESER C, 1969, ACAD MANAGE J, V12, P459, DOI 10.2307/254734; Reissman L, 1949, SOC FORCES, V27, P305, DOI 10.2307/2572184; ROMAN DD, 1968, RESEARCH DEVELOPMENT; SCOTT WG, 1961, ACAD MANAGE J, V4, P7; SHEPARD HA, 1956, ADMIN SCI QUART, V1, P295, DOI 10.2307/2390925; SHEPARD HA, 1958, RES MANAGE, V1, P177; SHEPARD HA, 1965, HDB ORGANIZATIONS; SHEPARD HA, 1961, CONFLICT MANAGEMENT; Simmel G., 1955, CONFLICT; SMITH CG, 1966, ADMINISTRATIVE SCIEN, V11, P520; SMITH EA, 1965, SOCIAL WELFARE PRINC; STAGNER R, 1954, PERSONNEL PSYCHOLOGY, V7, P70; Stagner R, 1954, PERS PSYCHOL, V7, P41, DOI 10.1111/j.1744-6570.1954.tb02256.x; STARR MK, 1971, MANAGEMENT MODERN AP; STEINER GA, 1968, INDUSTRIAL PROJECT M; Stewart J. M., 1965, BUS HORIZONS, V8, P54; STRAUSS G, 1963, IND RELAT, V2, P7, DOI 10.1111/j.1468-232X.1963.tb00287.x; TAGIURI R, 1964, ADMINISTERING RESEAR; TAYLOR FW, 1947, SCIENTIFIC MANAGEMEN; THOMPSON JD, 1967, ORGANIZATIONS ACTION; Vollmer H. M., 1966, PROFESSIONALIZATION; WALTON RE, 1969, ADMIN SCI QUART, V14, P522, DOI 10.2307/2391590; WALTON RE, 1969, ADMIN SCI QUART, V14, P73, DOI 10.2307/2391364; WEBER GH, 1966, PROFESSIONALIZATION; WEBER M, 1947, THEORY SOCIAL ECONOM; WILEMON DL, 1970, ACAD MANAGE J, V13, P269, DOI 10.2307/254964; WILENSKY H, 1956, INTELLECTUALS LABOR; WITHEY S, 1965, NATURE HUMAN CONFLIC; ZANDER A, 1966, PROFESSIONALIZATION; ZILLER RC, 1969, ACAD MANAGE J, V12, P487, DOI 10.2307/254737	91	32	32	0	5	ACAD MANAGEMENT	BRIARCLIFF MANOR	PACE UNIV, PO BOX 3020, 235 ELM RD, BRIARCLIFF MANOR, NY 10510-8020	0001-4273			ACAD MANAGE J	Acad. Manage. J.		1973	16	1					84	101		10.2307/255045				18	Business; Management	Business & Economics	R2929	WOS:A1973R292900008					2019-01-18	
J	ALBANESE, R				ALBANESE, R			CRITERIA FOR EVALUATING AUTHORITY PATTERNS	ACADEMY OF MANAGEMENT JOURNAL			English	Article									TEXAS A&M UNIV,COLL BUSINESS ADM,COLLEGE STN,TX 77843							ATCHISON TJ, 1970, PERSONNEL, V47, P8; ATHOS AG, 1970, HARVARD BUS REV, V48, P49; BENNE K, 1943, CONCEPTION AUTHORITY; DEMOS R, 1926, INT J ETHICS, V36; LEVINSON H, 1971, ARCH ENVIRON HEALTH, V22, P612, DOI 10.1080/00039896.1971.10665911; NISBET RA, 1969, PUBLIC INTEREST  SPR; OTTEN AL, 1971, WALL STREET J   0924, P10; WILSON FG, 1937, AM POLITICAL SCIENCE, V31	8	0	0	0	1	ACAD MANAGEMENT	BRIARCLIFF MANOR	PACE UNIV, PO BOX 3020, 235 ELM RD, BRIARCLIFF MANOR, NY 10510-8020	0001-4273			ACAD MANAGE J	Acad. Manage. J.		1973	16	1					102	111		10.2307/255046				10	Business; Management	Business & Economics	R2929	WOS:A1973R292900009					2019-01-18	
J	ADIZES, I; WESTON, JF				ADIZES, I; WESTON, JF			COMPARATIVE MODELS OF SOCIAL RESPONSIBILITY	ACADEMY OF MANAGEMENT JOURNAL			English	Article									UNIV CALIF,GRAD SCH MANAGEMENT,LOS ANGELES,CA 90024							ADIZES I, 1971, INDUSTRIAL DEMOCRACY; AVERITT RT, 1969, DAEDALUS, V98, P60; Bauer R. A, 1966, SOCIAL INDICATORS; BAUMOL W, 1971, NEW RATIONALE CORPOR; BAUMOL WJ, 1967, BUSINESS BEHAVIOR VA; BELL D, 1967, DAEDALUS, V96, P639; BOWEN HR, 1953, TOWARD SOCIAL RESPON; CHANDLER AD, 1968, CHANGING ECONOMIC OR; CULIBRK S, 1965, ZELJE STRAHOVANJA NA; CYERT RM, 1963, BEHAVIORAL THEORY FI; DZEBA K, 1965, PRIVREDNA REFORMA ZA; Emery F. E., 1969, SYSTEMS THINKING; EMERY FE, 1965, HUM RELAT, V18, P21, DOI 10.1177/001872676501800103; FREDERICK WC, 1960, CALIF MANAGE REV, V2, P54, DOI 10.2307/41165405; Friedman M, 1962, CAPITALISM FREEDOM; HAYEK F, 1962, ROAD CERFDOM; Leavitt T., 1958, HARVARD BUS REV, V36, P41; MCWHINNEY WH, 1968, HUM RELAT, V21, P269, DOI 10.1177/001872676802100304; NEWMAN WH, 1971, 31 P ANN M AC MAN, P8; RUFF LE, 1970, PUBLIC INTEREST, P69; SIMON HA, 1959, AM ECON REV, V49, P253; SIMON HA, 1962, AM ECON REV, V52, P1; Steiner G, 1972, ISSUES BUSINESS SOC; TRIST E, 1970, ORGANIZATIONAL FRONT; VICKERS G, 1971, WHARTON QUART    SPR, P4; WESTON JF, 1972, WESTERN ECON J, V10, P1; WESTON JF, 1972, BUSINESS HORIZONS, V15, P35; Williamson O. E., 1970, CORPORATE CONTROL BU; WILLIAMSON OE, 1967, ECONOMICS DISCRETION	29	17	17	1	5	ACAD MANAGEMENT	BRIARCLIFF MANOR	PACE UNIV, PO BOX 3020, 235 ELM RD, BRIARCLIFF MANOR, NY 10510-8020	0001-4273			ACAD MANAGE J	Acad. Manage. J.		1973	16	1					112	128		10.2307/255047				17	Business; Management	Business & Economics	R2929	WOS:A1973R292900010					2019-01-18	
J	GUTTERIDGE, TG				GUTTERIDGE, TG			PREDICTING CAREER SUCCESS OF GRADUATE BUSINESS SCHOOL ALUMNI	ACADEMY OF MANAGEMENT JOURNAL			English	Article									SUNY Buffalo, SCH MANAGEMENT, BUFFALO, NY 14214 USA							BURR A, 1969, MANAGEMENT PERSONNEL, V8; DEPASQUALE JA, 1971, HARVARD BUS REV, V49, P4; GUTTERIDGE TG, 1971, THESIS PURDUE U; HARRELL TW, 1967, FOLLOW UP MANAGEMENT; JENNINGS EE, 1961, MOBILE MANAGER; LIVINGSTON JS, 1971, HARVARD BUS REV, V49, P79; MCKERSIE R, 1966, SEP HARV BUS SCH B, P15	7	19	20	0	11	ACAD MANAGEMENT	BRIARCLIFF MANOR	PACE UNIV, PO BOX 3020, 235 ELM RD, BRIARCLIFF MANOR, NY 10510-8020 USA	0001-4273	1948-0989		ACAD MANAGE J	Acad. Manage. J.		1973	16	1					129	137		10.2307/255048				9	Business; Management	Business & Economics	R2929	WOS:A1973R292900011					2019-01-18	
J	GHORPADE, J				GHORPADE, J			ORGANIZATIONAL OWNERSHIP PATTERNS AND EFFICIENCY - CASE STUDY OF PRIVATE AND COOPERATIVE SUGAR FACTORIES IN SOUTH INDIA	ACADEMY OF MANAGEMENT JOURNAL			English	Article									CALIF STATE UNIV,SAN DIEGO,CA 92037							BARTON AH, 1961, ORGANIZATIONAL MEASU; BASS BM, 1962, PERSONNEL PSYCHOLOGY, V5, P157; Bauer R. A, 1966, SOCIAL INDICATORS; GHORPADE J, 1970, PAC SOCIOL REV, V13, P31; GHORPADE J, 1971, ASSESSMENT ORGANIZAT; GHORPADE JV, 1972, MAR ANN M AC MAN WES; GHORPADE JV, 1968, THESIS U CALIFORNIA; *GOV IND, 1962, THIRD 5 YEAR PLAN SU; *GOV IND, 1965, REPORT MONOPOLIES IN; *IND NAT PROD COUN, 1962, 15 REP SUG IND US PH; KATZ D, 1966, SOCIAL PSYCHOLOGY; Lewis John P., 1964, QUIET CRISIS INDIA; Myrdal G., 1968, ASIAN DRAMA INQUIRY, VIII; Myrdal Gunnar, 1968, ASIAN DRAMA INQUIRY, V1; Myrdal Gunnar, 1968, ASIAN DRAMA INQUIRY, V2; Palmer Norman, 1961, INDIAN POLITICAL SYS; PRICE J, 1972, HDB ORGANIZATIONAL M; PRICE JL, 1968, ORGANIZATIONAL EFFEC; *RES BANK IND, 1964, SUGAR COOPERATIVES I; SATTHIANADHAN WRS, 1962, COOPERATION; Seashore S. E., 1965, MICHIGAN BUSINESS RE, V17, P26; THOMPSON JD, 1966, APPROACHES ORGANIZAT; TRIANDIS HC, 1966, APPROACHES ORGANIZAT; YUCHTMAN E, 1967, AM SOCIOL REV, V32, P891, DOI 10.2307/2092843	24	2	2	0	3	ACAD MANAGEMENT	BRIARCLIFF MANOR	PACE UNIV, PO BOX 3020, 235 ELM RD, BRIARCLIFF MANOR, NY 10510-8020	0001-4273			ACAD MANAGE J	Acad. Manage. J.		1973	16	1					138	148		10.2307/255049				11	Business; Management	Business & Economics	R2929	WOS:A1973R292900012					2019-01-18	
J	GOLEMBIEWSKI, RT; MUNZENRI.R				GOLEMBIEWSKI, RT; MUNZENRI.R			PERSISTENCE AND CHANGE - NOTE ON LONG-TERM EFFECTS OF AN ORGANIZATION DEVELOPMENT PROGRAM	ACADEMY OF MANAGEMENT JOURNAL			English	Article									UNIV GEORGIA, ATHENS, GA 30601 USA; UNIV FLORIDA, GAINESVILLE, FL 32601 USA							FRIEDLANDER F, 1967, PERS PSYCHOL, V20, P289, DOI 10.1111/j.1744-6570.1967.tb01525.x; GOLEMBIEWSKI RT, 1971, ACAD MANAGE J, V14, P465, DOI 10.2307/255061; GOLEMBIEWSKI RT, 1969, TRAIN DEV J, V23, P18; SEASHORE SE, 1970, AM PSYCHOL, V25, P227, DOI 10.1037/h0029445	4	4	4	0	3	ACAD MANAGEMENT	BRIARCLIFF MANOR	PACE UNIV, PO BOX 3020, 235 ELM RD, BRIARCLIFF MANOR, NY 10510-8020 USA	0001-4273	1948-0989		ACAD MANAGE J	Acad. Manage. J.		1973	16	1					149	153		10.2307/255050				5	Business; Management	Business & Economics	R2929	WOS:A1973R292900013					2019-01-18	
J	LIDDELL, WW				LIDDELL, WW			MARGINALITY AND INTEGRATIVE DECISIONS	ACADEMY OF MANAGEMENT JOURNAL			English	Article									COLL WILLIAM & MARY,WILLIAMSBURG,VA 23185							MAIER NRF, 1969, PERS PSYCHOL, V22, P237, DOI 10.1111/j.1744-6570.1969.tb00329.x; PRUDEN HO, 1971, ACAD MANAGE J, V14, P145, DOI 10.2307/254719; ZILLER RC, 1969, ACAD MANAGE J, V12, P487, DOI 10.2307/254737; ZILLER RC, SELF OTHER ORIENTATI	4	7	7	0	2	ACAD MANAGEMENT	BRIARCLIFF MANOR	PACE UNIV, PO BOX 3020, 235 ELM RD, BRIARCLIFF MANOR, NY 10510-8020	0001-4273			ACAD MANAGE J	Acad. Manage. J.		1973	16	1					154	156		10.2307/255051				3	Business; Management	Business & Economics	R2929	WOS:A1973R292900014					2019-01-18	
J	HAND, HH; RICHARDS, MD; SLOCUM, JW				HAND, HH; RICHARDS, MD; SLOCUM, JW			ORGANIZATIONAL CLIMATE AND EFFECTIVENESS OF A HUMAN RELATIONS TRAINING PROGRAM	ACADEMY OF MANAGEMENT JOURNAL			English	Article									UNIV S CAROLINA,COLUMBIA,SC 29208; PENN STATE UNIV,COLL USINESS,UNIVERSITY PK,PA 16802							BECKHARD R, 1969, ORGANIZATION DEVELOP; BENNIS WG, 1969, ORGANIZATION DEVELOP; BERGER EM, 1952, J ABNORM SOC PSYCH, V47, P778, DOI 10.1037/h0061311; CAMPBELL JP, 1970, MANAGERIAL BEHAVIOR; DALTON GW, 1970, ORGANIZATIONAL CHANG; FLEISHMAN EA, 1960, MANUAL LEADERSHIP OP; FLEISHMAN EA, 1955, PERS PSYCHOL, V6, P205; Fleishman EA, 1953, J APPL PSYCHOL, V37, P1, DOI 10.1037/h0056314; FOREHAND GA, 1964, PSYCHOL BULL, V62, P361, DOI 10.1037/h0045960; FREDERIKSEN N, 1966, EFFECTS ORGANIZATION; GOLEMBIEWSKI RT, 1971, ACAD MANAGE J, V14, P465, DOI 10.2307/255061; GOLEMBIEWSKI RT, 1970, ADMIN SCI QUART, V15, P330, DOI 10.2307/2391623; HAND HH, 1972, J APPL PSYCHOL, V56, P412, DOI 10.1037/h0033592; HAND HH, 1970, ACAD MANAGE J, V13, P403, DOI 10.2307/254830; HOUSE RJ, 1968, ADMIN SCI QUART, V12, P556, DOI 10.2307/2391533; KACZKA EE, 1967, ADMIN SCI QUART, V12, P253, DOI 10.2307/2391551; KNOWLES H, 1971, PRESONALITY LEADERSH; KORMAN AK, 1966, PERS PSYCHOL, V19, P349, DOI 10.1111/j.1744-6570.1966.tb00310.x; LIKERT R, 1967, HUMAN ORGANIZATION; LITWIN GH, 1968, MOTIVATION ORGANIZAT; MOSVICK RK, 1971, PERS PSYCHOL, V24, P275; NATH R, 1968, ACADEMY MANAGEMENT P, P51; ODIORNE GS, 1970, TRAINING OBJECTIVES; SHAW ME, 1967, SCALES MEASUREMENT A	24	29	29	0	5	ACAD MANAGEMENT	BRIARCLIFF MANOR	PACE UNIV, PO BOX 3020, 235 ELM RD, BRIARCLIFF MANOR, NY 10510-8020	0001-4273			ACAD MANAGE J	Acad. Manage. J.		1973	16	2					185	195		10.2307/255321				11	Business; Management	Business & Economics	R2930	WOS:A1973R293000001					2019-01-18	
J	BEATTY, RW				BEATTY, RW			BLACKS AS SUPERVISORS - STUDY OF TRAINING, JOB PERFORMANCE, AND EMPLOYERS EXPECTATIONS	ACADEMY OF MANAGEMENT JOURNAL			English	Article									UNIV COLORADO,BOULDER,CO 80304							BEHLING GL, 1959, THESIS U WISCONSIN; FLEISHMAN EA, 1960, MANUAL LEADERSHIP OP; FLEISHMAN EA, 1967, LEARNING INDIVIDUAL; FRIEDLANDER F, 1971, J APPL PSYCHOL, V55, P287, DOI 10.1037/h0031532; GHISELLI EE, 1963, AM PSYCHOL, V18, P631, DOI 10.1037/h0048149; GORDON JE, 1971, MANPOWER, V3; GOURLEY JG, 1965, NEGRO SALARIED WORKE; HAND HH, 1970, ACAD MANAGE J, V13, P403, DOI 10.2307/254830; HINRICHS JR, 1970, ANNU REV PSYCHOL, V21, P519, DOI 10.1146/annurev.ps.21.020170.002511; KIRKPATRICK DL, 1967, MANUAL SUPERVISORY I; KORMAN AK, 1966, PERS PSYCHOL, V19, P349, DOI 10.1111/j.1744-6570.1966.tb00310.x; Marshall Ray, 1967, NEGRO WORKER; MARTIN HO, 1957, PERS MANAGE, V39, P88; NORD WR, 1970, REHABILITATION SHELT; SENGER J, 1971, ACAD MANAGE J, V14, P415, DOI 10.2307/255057; STOGDILL RM, 1957, LEADER BEHAVIOR DESC; TRIANDIS HC, 1971, J APPL SOC PSYCHOL, V1, P101, DOI 10.1111/j.1559-1816.1971.tb00356.x	17	10	10	0	3	ACAD MANAGEMENT	BRIARCLIFF MANOR	PACE UNIV, PO BOX 3020, 235 ELM RD, BRIARCLIFF MANOR, NY 10510-8020	0001-4273			ACAD MANAGE J	Acad. Manage. J.		1973	16	2					196	206		10.2307/255322				11	Business; Management	Business & Economics	R2930	WOS:A1973R293000002					2019-01-18	
J	ATHANASSIADES, JC				ATHANASSIADES, JC			DISTORTION OF UPWARD COMMUNICATION IN HIERARCHICAL ORGANIZATIONS	ACADEMY OF MANAGEMENT JOURNAL			English	Article									GEORGIA STATE UNIV, ATLANTA, GA 30303 USA							ARGYRIS C, 1960, YALE SCIENTIFIC  FEB; Argyris C., 1953, EXECUTIVE LEADERSHIP; ARGYRIS C, 1962, INTERPERSONAL COMPET; ATKINSON JW, 1957, PSYCHOL REV, V64, P359, DOI 10.1037/h0043445; BENNIS WG, 1958, HUM RELAT, V11, P143, DOI 10.1177/001872675801100204; BERKOWITZ NH, 1961, ADMIN SCI QUART, V6, P25, DOI 10.2307/2390739; BLAI B, 1963, PERS J, V42, P453; BLAU PM, 1962, FORMAL ORGANIZATIONS; COHEN AR, 1958, HUM RELAT, V11, P41, DOI 10.1177/001872675801100103; CROCKETT HJ, 1962, AM SOCIOL REV, V27, P191, DOI 10.2307/2089675; DILL WR, 1958, ADMIN SCI QUART, V2, P409, DOI 10.2307/2390794; ELSALMI A, 1969, ACADEMY MANAGEMENT P, P123; ETZIONI A, 1964, MODERN ORGANIZATIONS; EVANS M, 1970, ORGANIZATIONAL BEHAV, V5, P227; FESTINGER L, 1950, PSYCHOL REV, V57, P217; GAITO J, 1959, PSYCHOLOGICAL REPORT, V5; Goffman E., 1959, PRESENTATION SELF EV; GORDON LV, 1963, PERSONAL INVENTORY M; GORDON LV, 1963, PERSONAL PROFILE MAN; HAIRE ME, 1963, IND RELAT, V2, P113; HANCOCK JG, 1964, J PERS, V32, P200, DOI 10.1111/j.1467-6494.1964.tb01335.x; HENRY D, 1959, INDUSTRIAL MAN; Herzberg F, 1959, MOTIVATION WORK; HURWITZ J, 1953, GROUP DYNAMICS; JENNINGS EE, 1965, MANAGEMENT PERSONNEL, V4, P29; Kahn R. L., 1958, HUMAN RELATIONS MODE; KAHN RL, 1969, ORGANIZATIONAL STRES; Kelley HH, 1951, HUM RELAT, V4, P39, DOI 10.1177/001872675100400102; LEAVITT HJ, 1951, J ABNORM SOC PSYCH, V46, P38, DOI 10.1037/h0057189; LEAVITT HJ, 1964, MANAGERIAL PSYCHOLOG; LIKERT R, 1951, NEW PATTERNS MANAGEM; Lippitt R, 1952, HUM RELAT, V5, P37, DOI 10.1177/001872675200500102; Maslow A. H., 1954, MOTIVATION PERSONALI; MASLOW AH, 1952, MANUAL SECURITY INSE; McClelland D. C., 1953, ACHIEVEMENT MOTIVE; MEERLOO JAM, 1952, CONVERSATION COMMUNI; Pepitone A, 1950, HUM RELAT, V3, P57, DOI 10.1177/001872675000300103; PORTER LW, 1961, J APPL PSYCHOL, V45, P1, DOI 10.1037/h0043121; READ WH, 1962, HUM RELAT, V15, P3, DOI 10.1177/001872676201500101; SIMON H, 1967, ADMINISTRATIVE BEHAV; STANTON ES, 1960, J APPL PSYCHOL, V44, P20; Thibaut JW, 1955, HUM RELAT, V8, P95, DOI 10.1177/001872675500800201; VROOM VH, 1964, WORK MOTIVATION; WEBER M, 1966, THEORY SOCIAL ECONOM; WHYTE WH, 1956, ORGANIZATION MAN	45	46	46	1	7	ACAD MANAGEMENT	BRIARCLIFF MANOR	PACE UNIV, PO BOX 3020, 235 ELM RD, BRIARCLIFF MANOR, NY 10510-8020 USA	0001-4273	1948-0989		ACAD MANAGE J	Acad. Manage. J.		1973	16	2					207	226		10.2307/255323				20	Business; Management	Business & Economics	R2930	WOS:A1973R293000003					2019-01-18	
J	HARRISON, F				HARRISON, F			ORGANIZATIONAL CORRELATES OF PERCEIVED ROLE PERFORMANCE AT UNIVERSITY AND COLLEGE LEVEL	ACADEMY OF MANAGEMENT JOURNAL			English	Article									UNIV PUGET SOUND,SCH BUSINESS ADM,TACOMA,WA 98416							Burns T, 1961, MANAGEMENT INNOVATIO; LYNN KS, 1967, PROFESSIONS AM; MORAN WE, 1968, J HIGH EDUC, V39, P144, DOI 10.2307/1979593	3	4	4	0	1	ACAD MANAGEMENT	BRIARCLIFF MANOR	PACE UNIV, PO BOX 3020, 235 ELM RD, BRIARCLIFF MANOR, NY 10510-8020	0001-4273			ACAD MANAGE J	Acad. Manage. J.		1973	16	2					227	238		10.2307/255324				12	Business; Management	Business & Economics	R2930	WOS:A1973R293000004					2019-01-18	
J	MILLER, EL				MILLER, EL			INTERNATIONAL SELECTION DECISION - STUDY OF SOME DIMENSIONS OF MANAGERIAL BEHAVIOR IN SELECTION DECISION PROCESS	ACADEMY OF MANAGEMENT JOURNAL			English	Article									UNIV MICHIGAN,GRAD SCH BUSINESS,ANN ARBOR,MI 48104							Adams John Clarke, 1960, OVERSEAS AM; BASSETT GA, 1968, SELECTING MANAGERS S; CAMPBELL JP, 1970, MANAGERIAL BEHAVIOR; HEENAN DA, 1970, COLUMBIA J WORLD BUS, V5, P49; Ivancevich J. M., 1969, PERS J, V48, P190; KAPOOR A, 1971, MANAGING INT MARKETS; LAWLER EE, 1970, PERS PSYCHOL, V23, P223, DOI 10.1111/j.1744-6570.1970.tb01652.x; LOVELL EB, 1966, CHANGING ROLE INT EX; March J. G., 1958, ORGANIZATIONS; MILLER EL, UNPUBLISHED STUDY; MILLER EW, 1960, THINK, V26, P26; QUINN RP, 1968, DECISION DISCRIMINAT	12	29	29	0	1	ACAD MANAGEMENT	BRIARCLIFF MANOR	PACE UNIV, PO BOX 3020, 235 ELM RD, BRIARCLIFF MANOR, NY 10510-8020	0001-4273			ACAD MANAGE J	Acad. Manage. J.		1973	16	2					239	252		10.2307/255325				14	Business; Management	Business & Economics	R2930	WOS:A1973R293000005					2019-01-18	
J	MINER, JB				MINER, JB			MANAGEMENT CONSULTING FIRM AS A SOURCE OF HIGH-LEVEL MANAGERIAL TALENT	ACADEMY OF MANAGEMENT JOURNAL			English	Article									GEORGIA STATE UNIV,SCH BUSINESS ADM,ATLANTA,GA 30303							CAMPBELL JP, 1970, MANAGERIAL BEHAVIOR; GHISELLI EE, 1971, EXPLORATIONS MANAGER; HIGDON H, 1969, BUSINESS HEALERS; MINER JB, 1971, PERS PSYCHOL, V24, P191; MINER JB, 1968, HARVARD BUS REV, V46, P102; MINER JB, 1962, ADMIN SCI QUART, V7, P96, DOI 10.2307/2390635; MINER JB, 1961, J EDUC PSYCHOL, V52, P157, DOI 10.1037/h0041647; MINER JB, 1965, STUDIES MANAGEMENT E; Miner JB, 1957, INTELLIGENCE US; MINER JB, 1967, SCH ADMINISTRATOR OR; TERMAN LM, 1959, GIFTED GROUP MID LIF; TERMAN LM, 1956, MANUAL CONCEPT MASTE; Thorndike RL, 1942, J APPL PSYCHOL, V26, P128, DOI 10.1037/h0060053; Tomkins S.S., 1957, TOMKINS HORN PICTURE	14	6	6	1	7	ACAD MANAGEMENT	BRIARCLIFF MANOR	PACE UNIV, PO BOX 3020, 235 ELM RD, BRIARCLIFF MANOR, NY 10510-8020	0001-4273			ACAD MANAGE J	Acad. Manage. J.		1973	16	2					253	264		10.2307/255326				12	Business; Management	Business & Economics	R2930	WOS:A1973R293000006					2019-01-18	
J	TANSIK, DA				TANSIK, DA			INFLUENCES OF ORGANIZATIONAL GOAL STRUCTURES UPON PARTICIPANT EVALUATIONS	ACADEMY OF MANAGEMENT JOURNAL			English	Article									UNIV ARIZONA,TUCSON,AZ 85721							BARNARD C., 1938, FUNCTIONS EXECUTIVE; BAUMLER JV, 1971, ADMIN SCI QUART, V16, P340, DOI 10.2307/2391906; BLAU PM, 1955, DYNAMICS BUREAUCARCY; CARROLL SJ, 1970, ADMIN SCI QUART, V15, P295, DOI 10.2307/2391619; COHEN AR, 1959, STUDIES SOCIAL POWER; Downs Antony, 1967, INSIDE BUREAUCRACY; Dror Y., 1968, PUBLIC POLICYMAKING; ENGLAND GW, 1967, ACAD MANAGE J, V10, P107, DOI 10.2307/254630; ETZIONI A, 1965, HDB ORGANIZATIONS; FILLEY AC, 1969, MANAGERIAL PROCESS O; GORDON G, 1965, ANNUAL M AM SOCIOLOG; GREENE CN, 1972, ACAD MANAGE J, V15, P205, DOI 10.2307/254912; HABERSTROH CJ, 1966, SOME THEORIES ORGANI; KOONTZ H, 1964, PRINCIPLES MANAGEMEN; March J. G., 1958, ORGANIZATIONS; MARCSON S, 1960, SCIENTIST AM INDUSTR; McGregor D. M., 1967, PROFESSIONAL MANAGER; McNichols T. J., 1967, POLICY MAKING EXECUT; Merton Robert King, 1957, SOCIAL THEORY SOCIAL; PARSONS T, 1956, ADMIN SCI QUART, V1, P63, DOI 10.2307/2390840; PRIEN EP, 1968, PERSONNEL PSYCHOLOGY, V21, P503; RADNOR M, 1966, OPERATIONAL RESEARCH; RAVEN BH, 1957, HUM RELAT, V10, P29, DOI 10.1177/001872675701000102; RHENMAN E, 1964, 3 P INT C OP RES OSL, P441; ROETHLISBERGER FJ, 1939, MANAGEMENT WORKER; ROSNER MM, 1968, BEHAV SCI, V13, P36, DOI 10.1002/bs.3830130105; RUBENSTEIN AH, 1957, HARVARD BUS REV, V35, P95; SCOTT WR, 1967, ADMIN SCI QUART, V12, P93, DOI 10.2307/2391214; SIMON HA, 1957, ADMINISTRATIVE BEHAV; SIMON HA, 1950, PUBLIC ADMINISTRATIO; THOMPSON JD, 1967, ORGANIZATIONS ACTION; TOMEKOVIC T, 1962, HUM RELAT, V15, P197, DOI 10.1177/001872676201500302; *US GOV, 1967, 196768 ORG MAN; WARRINER CK, 1965, SOCIOL QUART, V6, P139, DOI 10.1111/j.1533-8525.1965.tb01647.x; Whyte W. F., 1955, MONEY AND MOTIVATION; YUCHTMAN E, 1967, AM SOCIOL REV, V32, P891, DOI 10.2307/2092843	36	2	2	0	1	ACAD MANAGEMENT	BRIARCLIFF MANOR	PACE UNIV, PO BOX 3020, 235 ELM RD, BRIARCLIFF MANOR, NY 10510-8020	0001-4273			ACAD MANAGE J	Acad. Manage. J.		1973	16	2					265	276		10.2307/255327				12	Business; Management	Business & Economics	R2930	WOS:A1973R293000007					2019-01-18	
J	WAHBA, MA; SHAPIRO, HJ				WAHBA, MA; SHAPIRO, HJ			MANAGERIAL ASSESSMENT OF ORGANIZATIONAL COMPONENTS	ACADEMY OF MANAGEMENT JOURNAL			English	Article									CITY UNIV NEW YORK,BARUCH COLL MED CTR,NEW YORK,NY 10010							CAMPBELL JP, 1970, MANAGERIAL BEHAVIOR; Cattell RB, 1953, HUM RELAT, V6, P331, DOI 10.1177/001872675300600403; Cattell RB, 1951, HUM RELAT, V4, P161, DOI 10.1177/001872675100400203; Cattell RB, 1948, J SOC PSYCHOL, V28, P57, DOI 10.1080/00224545.1948.9921757; GHISELLI EE, 1956, J APPL PSYCHOL, V40, P1, DOI 10.1037/h0040429; Guilford J. P., 1954, PSYCHOMETRIC METHODS; Guion R. M, 1965, PERSONNEL TESTING; Hemphill JK, 1950, J PSYCHOL, V29, P325, DOI 10.1080/00223980.1950.9916035; KATZ D, 1966, SOCIAL PSYCHOLOGY; MAHONEY TA, 1969, ADMIN SCI QUART, V14, P357, DOI 10.2307/2391131; MAHONEY TA, 1967, MANAGE SCI, V14, pB76; SEASHORE SE, 1967, ADMIN SCI QUART, V12, P377, DOI 10.2307/2391311; THOMPSON JD, 1967, ORGANIZATIONS ACTION; THORNDIKE JD, 1949, PERSONNEL SELECTION; WOODWARD J, 1965, INDUSTRIAL ORGANIZAT	15	2	2	0	1	ACAD MANAGEMENT	BRIARCLIFF MANOR	PACE UNIV, PO BOX 3020, 235 ELM RD, BRIARCLIFF MANOR, NY 10510-8020	0001-4273			ACAD MANAGE J	Acad. Manage. J.		1973	16	2					277	284		10.2307/255328				8	Business; Management	Business & Economics	R2930	WOS:A1973R293000008					2019-01-18	
J	KHANDWALLA, PN				KHANDWALLA, PN			EFFECT OF COMPETITION ON STRUCTURE OF TOP MANAGEMENT CONTROL	ACADEMY OF MANAGEMENT JOURNAL			English	Article									MCGILL UNIV, FAC MANAGEMENT, MONTREAL, QUEBEC, CANADA							Argyris C., 1964, INTEGRATING INDIVIDU; BENNIS WG, 1966, CHANGING ORGANIZATIO; Burns T, 1961, MANAGEMENT INNOVATIO; CYERT R, 1965, THEORY FIRM; CYERT RM, 1963, BEHAVIORAL THEORY FI; Deutsch M., 1962, J CONFLICT RESOLUT, V6, P52, DOI DOI 10.1177/002200276200600107; ETZIONI A, 1964, MODERN ORGANIZATIONS; KAHN RL, 1960, PERS PSYCHOL, V13, P275, DOI 10.1111/j.1744-6570.1960.tb01357.x; LAWRENCE PR, 1967, ORGANIZATION ENVIRON; LIKERT R, 1967, HUMAN ORGANIZATION; March J. G., 1958, ORGANIZATIONS; Maslow A. H., 1954, MOTIVATION PERSONALI; RAPOPORT A, 1967, PSYCHOL REV, V74, P136, DOI 10.1037/h0024282; Rhenman E., 1970, CONFLICT COOPERATION; Shubik M, 1964, GAME THEORY RELATED; THOMPSON JD, 1967, ORGANIZATIONS ACTION; VROOM VH, 1964, WORK MOTIVATION	17	61	61	0	6	ACAD MANAGEMENT	BRIARCLIFF MANOR	PACE UNIV, PO BOX 3020, 235 ELM RD, BRIARCLIFF MANOR, NY 10510-8020 USA	0001-4273	1948-0989		ACAD MANAGE J	Acad. Manage. J.		1973	16	2					285	295		10.2307/255329				11	Business; Management	Business & Economics	R2930	WOS:A1973R293000009					2019-01-18	
J	HUNT, RG; RUBIN, IS				HUNT, RG; RUBIN, IS			APPROCHES TO MANAGERIAL CONTROL IN INTERPENETRATING SYSTEMS - CASE OF GOVERNMENT-INDUSTRY RELATIONS	ACADEMY OF MANAGEMENT JOURNAL			English	Article									SUNY Buffalo, SURVEY RES CTR, BUFFALO, NY 14214 USA; SUNY Buffalo, DEPT PSYCHOL, BUFFALO, NY 14214 USA; HOFSTRA UNIV, NEW COLL, HEMPSTEAD, NY 11550 USA; SUNY Buffalo, DEPT PSYCHOL, BUFFALO, NY 14214 USA							ALEXANDER T, 1969, FORTUNE, V80; BRAND J, 1969, FEDERALISM TODAY; DANHOF C, 1968, GOVERNMENT CONTRACTI; French J.R.P, 1959, STUDIES SOCIAL POWER; GALBRAITH JK, 1969, HARPERS, V238, P31; HOLLANDER EP, 1969, PSYCHOL BULL, V71, P387, DOI 10.1037/h0027347; HOMANS GC, 1961, SOCIAL BEHAIOR ELEME; HUNT RG, 1971, SOC FORCES, V49, P414, DOI 10.2307/3005734; HUNT RG, 1967, MONTANA BUSINESS QUA, V7, P26; HUNT RG, 1971, EXTRACONTRACTUAL INF; HUNT RG, 1970, NATIONAL CONTRACT MA, V4, P245; KATZ D, 1966, SOCIAL PSYCHOLOGY OR; KAUFMAN RF, 1969, NEW YORK TIMES  0622, P10; MACAULAY S, 1963, AM SOCIOL REV, V28, P55, DOI 10.2307/2090458; MERTON RK, 1957, SOCIAL THEORY SOCIAL, pCH10; MEYERSON M, 1967, HARVARD BUS REV, V45, P111; MILLER EJ, 1967, SYSTEMS ORGANIZATION; Peck M. J., 1962, WEAPONS ACQUISITION; SAYLES LR, 1964, MANAGERIAL BEHAVIOR; Scherer F. M., 1964, WEAPONS ACQUISITION; SELZNICK P, 1957, LEADERSHIP ADMINISTR; SHERIF M, 1951, SOCIAL PSYCHOLOGY CR; TYBOUT R, 1956, GOVERNMENT CONTRACTI; WILEMON DL, 1970, ACAD MANAGE J, V13, P269, DOI 10.2307/254964	24	4	4	0	2	ACAD MANAGEMENT	BRIARCLIFF MANOR	PACE UNIV, PO BOX 3020, 235 ELM RD, BRIARCLIFF MANOR, NY 10510-8020 USA	0001-4273	1948-0989		ACAD MANAGE J	Acad. Manage. J.		1973	16	2					296	311		10.2307/255330				16	Business; Management	Business & Economics	R2930	WOS:A1973R293000010					2019-01-18	
J	DAVIS, K				DAVIS, K			CASE FOR AND AGAINST BUSINESS ASSUMPTION OF SOCIAL RESPONSIBILITIES	ACADEMY OF MANAGEMENT JOURNAL			English	Article									ARIZONA STATE UNIV,TEMPE,AZ 85281							DAVIS K, 1971, BUSINESS SOC ENVIRON; FRIEDMAN M, 1971, BANK ADM         APR, P13; Friedman M, 1962, CAPITALISM FREEDOM; HENDERSON H, 1968, HARVARD BUS REV, V46, P77; JOHNSON HL, 1971, BUSINESS CONTEMPORAR; MCGUIRE JW, 1971, CALIF MANAGE REV, V13, P79, DOI 10.2307/41164322; SAMUELSON PA, 1971, MT BELL MAGAZINE SPR; Wallich H. C., 1970, NEW RATIONALE CORPOR	8	507	514	2	24	ACAD MANAGEMENT	BRIARCLIFF MANOR	PACE UNIV, PO BOX 3020, 235 ELM RD, BRIARCLIFF MANOR, NY 10510-8020	0001-4273			ACAD MANAGE J	Acad. Manage. J.		1973	16	2					312	322		10.2307/255331				11	Business; Management	Business & Economics	R2930	WOS:A1973R293000011					2019-01-18	
J	HLAVACEK, JD; THOMPSON, VA				HLAVACEK, JD; THOMPSON, VA			BUREAUCRACY AND NEW PRODUCT INNOVATION	ACADEMY OF MANAGEMENT JOURNAL			English	Article									SUNY, SCH BUSINESS, ALBANY, NY 12203 USA; UNIV FLORIDA, GAINESVILLE, FL 32601 USA							ADLER L, 1966, J MARKETING, V30, P17, DOI 10.2307/1249592; ANNA HJ, 1969, PROJECT MANAGEMENT O; ANNA HJ, 1970, PROJECT MANAGEMENT O; CLELAND DT, 1968, SYSTEM ANALYSIS PROJ; CLELAND DT, 1967, AEROSPACE MANAGEMENT, V2, P5; Colum GILFILLAN Seabury, 1935, SOCIOLOGY INVENTION; Downs Antony, 1967, INSIDE BUREAUCRACY; EMMERICK H, 1971, FEDERAL ORGANIZATION; HALL RG, UNPUBLISHED; HALL RH, 1961, THESIS OHIO STATE U; HALL RH, 1962, ADMINISTRATIVE SCIEN, V7, P21; Herzberg F, 1959, MOTIVATION WORK; HUNTINGTON SP, 1961, AM POLIT SCI REV, V55, P40, DOI 10.2307/1976048; KORNHAUSER W, 1962, SCIENTISTS INDUSTRY; LANDAU M, 1969, PUBLIC ADMIN REV, V29, P346, DOI 10.2307/973247; MARCSON S, 1960, SCIENTIST AM INDUSTR; *NAT SCIENC F, 1969, RES DEV IND; NELSON RR, 1959, J POLITICAL ECONOMIC, V67; Niskanen William A., 1971, BUREAUCRACY REPRESEN; PARSONS T, 1957, THEORY SOCIAL ECONOM; SCHUMPETER JA, 1951, THEORY ECONOMIC DEVE; STEIN MI, 1960, CREATIVITY INDIVIDUA; STEINER GA, 1968, INDUSTRIAL PROJECT M; STEINER GA, 1962, CREATIVE ORGANIZATIO; Thompson V. A., 1969, BUREAUCRACY INNOVATI; von Mises Ludwig, 1944, BUREAUCRACY; Weber M., 1922, WIRTSCHAFT GESELLSCH	27	24	24	1	6	ACAD MANAGEMENT	BRIARCLIFF MANOR	PACE UNIV, PO BOX 3020, 235 ELM RD, BRIARCLIFF MANOR, NY 10510-8020 USA	0001-4273			ACAD MANAGE J	Acad. Manage. J.		1973	16	3					361	372		10.2307/254998				12	Business; Management	Business & Economics	R2931	WOS:A1973R293100001					2019-01-18	
J	BEHLING, O; STARKE, FA				BEHLING, O; STARKE, FA			POSTULATES OF EXPECTANCY THEORY	ACADEMY OF MANAGEMENT JOURNAL			English	Article									OHIO STATE UNIV,COLUMBUS,OH 43210; UNIV MANITOBA,WINNIPEG,MANITOBA,CANADA							Allais M, 1953, ECONOMETRICA, V21, P503, DOI 10.2307/1907921; ATKINSON JW, 1958, MOTIVES FANTASY ACTI; BECKER SW, 1964, J POLIT ECON, V72, P62, DOI 10.1086/258854; BEHLING O, 1973, P MIDWEST M AM I DEC; CAMPBELL JP, 1970, MANAGERIAL BEHAVIOR; CRANDALL VJ, 1958, J GEN PSYCHOL, V58, P3, DOI 10.1080/00221309.1958.9920376; Davidson D, 1957, DECISION MAKING EXPT; DAVIS JM, 1958, BEHAV SCI, V3, P26; EDWARDS W, 1954, PSYCHOL BULL, V51, P380, DOI 10.1037/h0053870; ELLSBERG D, 1961, Q J ECON, V75, P643, DOI 10.2307/1884324; GALBRAITH J, 1967, ORGAN BEHAV HUM PERF, V2, P237, DOI 10.1016/0030-5073(67)90020-7; GEORGOPOULOS BS, 1957, J APPL PSYCHOL, V41, P345, DOI 10.1037/h0048473; GOODMAN PS, 1970, J APPL PSYCHOL, V54, P491, DOI 10.1037/h0030138; GRAEN G, 1969, J APPL PSYCHOL, V53, P1, DOI 10.1037/h0027100; GRISWOLD BJ, 1962, AM J PSYCHOL, V75, P35, DOI 10.2307/1419540; HACKMAN JR, 1968, ORGAN BEHAV HUM PERF, V3, P417, DOI 10.1016/0030-5073(68)90018-4; HENEMAN HG, 1972, PSYCHOL BULL, V78, P1, DOI 10.1037/h0033093; HOUSE R, 1971, PATH GOAL CONTENGENC; HOUSE R, 1972, SOME NEW APPLICATION; IRWIN FW, 1966, J EXP PSYCHOL, V71, P282, DOI 10.1037/h0022852; IRWIN FW, 1968, J EXP PSYCHOL, V76, P444, DOI 10.1037/h0025527; IRWIN FW, 1953, J PERS, V21, P329, DOI 10.1111/j.1467-6494.1953.tb01775.x; IRWIN FW, 1966, PSYCHON SCI, V5, P79, DOI DOI 10.3758/BF03328289; LAWLER EE, 1966, PERS PSYCHOL, V19, P153, DOI 10.1111/j.1744-6570.1966.tb02025.x; LAWLER EE, 1967, ORGAN BEHAV HUM PERF, V2, P122, DOI 10.1016/0030-5073(67)90026-8; LAWLER EE, 1971, PAY ORGANIZATIONAL E; LEFCOURT HM, 1966, PSYCHOL BULL, V65, P206, DOI 10.1037/h0023116; LEWIN K, 1938, CONCEPTUAL PRESENTAT; LUCE R. D., 1957, GAMES DECISIONS; MACCRIMMON K, 1968, RISK UNCERTAINTY; MARKS RW, 1951, J PERS, V19, P332, DOI 10.1111/j.1467-6494.1951.tb01107.x; May KO, 1954, ECONOMETRICA, V22, P1, DOI 10.2307/1909827; MITCHELL TR, 1971, 7010 U WASH DEP PSYC; MORLOCK HC, 1964, PSYCHOL REP, V14, P11, DOI 10.2466/pr0.1964.14.1.11; Papandreou A. G., 1953, ECONOMETRICA, V21, P477; PEAK H, 1955, NEBRASKA S MOTIVATIO; Porter L.W., 1968, MANAGERIAL ATTITUDES; PRUITT DG, 1965, J EXP PSYCHOL, V69, P483, DOI 10.1037/h0021721; ROTTER JB, 1966, PSYCHOL MONOGR, V80, P1, DOI 10.1037/h0092976; ROTTER JB, 1955, NEBRASKA S MOTIVATIO; SAVAGE LJ, 1954, FOUNDATIONS STATISTI; SCHEIBE KE, 1964, PSYCHOL REC, V14, P137, DOI 10.1007/BF03393570; SIMON HA, 1971, AM PSYCHOL, V26, P145, DOI 10.1037/h0030806; SLOVIC P, 1966, IEEE TRANS HUM FACT, VHFE7, P22, DOI 10.1109/THFE.1966.231980; SOELBERG P, 1966, 26 P M AC MAN, P3; TOLMAN EC, 1932, PURPOSIVE BEHAVIOR M; TVERSKY A, 1969, PSYCHOL REV, V76, P31, DOI 10.1037/h0026750; VONNEUMANN J, 1947, THEORY GAMES ECONOMI; VROOM VH, 1964, WORK MOTIVATION; WAHBA M, EXPECTANCY THEORY WO	50	56	56	1	5	ACAD MANAGEMENT	BRIARCLIFF MANOR	PACE UNIV, PO BOX 3020, 235 ELM RD, BRIARCLIFF MANOR, NY 10510-8020	0001-4273			ACAD MANAGE J	Acad. Manage. J.		1973	16	3					373	388		10.2307/254999				16	Business; Management	Business & Economics	R2931	WOS:A1973R293100002					2019-01-18	
J	REIF, WE; MONCZKA, RM; NEWSTROM, JW				REIF, WE; MONCZKA, RM; NEWSTROM, JW			PERCEPTIONS OF FORMAL AND INFORMAL ORGANIZATIONS - OBJECTIVE MEASUREMENT THROUGH SEMANTIC DIFFERENTIAL TECHNIQUE	ACADEMY OF MANAGEMENT JOURNAL			English	Article									ARIZONA STATE UNIV,TEMPE,AZ 85281							ARGYRIS C, 1957, PERSONALITY ORGANIZA; Barnard C., 1938, FUNCTIONS EXECUTIVE; BENNIS W, 1972, PSYCHOLOGY TODAY, V6; CAMPBELL JP, 1970, MANAGERIAL BEHAVIOR; FRENCH WL, 1973, ORGANIZATION DEVELOP; LAWRENCE PP, 1965, ORGANIZATIONAL BEHAV; Likert R., 1961, NEW PATTERNS MANAGEM; Osgood C.E., 1957, MEASUREMENT MEANING; SAYLES L, 1970, BUS HORIZONS, V13, P25, DOI 10.1016/0007-6813(70)90043-1; SAYLES LR, 1963, ORGANIZATIONS STRUCT	10	7	7	0	6	ACAD MANAGEMENT	BRIARCLIFF MANOR	PACE UNIV, PO BOX 3020, 235 ELM RD, BRIARCLIFF MANOR, NY 10510-8020	0001-4273			ACAD MANAGE J	Acad. Manage. J.		1973	16	3					389	403		10.2307/255000				15	Business; Management	Business & Economics	R2931	WOS:A1973R293100003					2019-01-18	
J	SIEGEL, JP				SIEGEL, JP			MACHIAVELLIANISM, MBAS AND MANAGERS - LEADERSHIP CORRELATES AND SOCIALIZATION EFFECTS	ACADEMY OF MANAGEMENT JOURNAL			English	Article									UNIV TORONTO,FAC MANAGEMENT STUDIES,TORONTO,ONTARIO,CANADA							BOWEN DD, 1972, PERSONAL COMMUNICATI; CALHOON RP, 1969, ACAD MANAGE J, V12, P205, DOI 10.2307/254816; Christie R., 1970, STUDIES MACHIAVELLIA; DESALVIA DN, 1971, ACAD MANAGE J, V14, P227, DOI 10.2307/255309; GEMMILL RR, 1972, ACADEMY MANAGEMENT J, V15, P51; GEORGE CS, 1968, HISTORY MANAGEMENT T; Haire M., 1966, MANAGERIAL THINKING; JAY A, 1968, MANAGEMENT MACHIAVEL; SCHEIN EH, 1967, ADMIN SCI QUART, V11, P601, DOI 10.2307/2391078; STRAUSS G, 1968, IND RELAT, V7, P262, DOI 10.1111/j.1468-232X.1968.tb01080.x; STRAUSS G, 1963, SOCIAL SCIENCE ORGAN; STROTHER GB, 1963, SOCIAL SCIENCE ORGAN	12	26	28	0	11	ACAD MANAGEMENT	BRIARCLIFF MANOR	PACE UNIV, PO BOX 3020, 235 ELM RD, BRIARCLIFF MANOR, NY 10510-8020	0001-4273			ACAD MANAGE J	Acad. Manage. J.		1973	16	3					404	411		10.2307/255001				8	Business; Management	Business & Economics	R2931	WOS:A1973R293100004					2019-01-18	
J	CECIL, EA; CUMMINGS, LL; CHERTKOF.JM				CECIL, EA; CUMMINGS, LL; CHERTKOF.JM			GROUP COMPOSITION AND CHOICE SHIFT - IMPLICATIONS FOR ADMINISTRATION	ACADEMY OF MANAGEMENT JOURNAL			English	Article									UNIV MISSOURI,COLL ADM & PUBL AFFAIRS,COLUMBIA,MO 65201; UNIV WISCONSIN,GRAD SCH BUSINESS,MADISON,WI 53706; INDIANA UNIV,DEPT PSYCHOL,BLOOMINGTON,IN 47401							ASCH SE, 1960, GROUP DYNAMICS; BEM DJ, 1965, J PERS SOC PSYCHOL, V1, P453, DOI 10.1037/h0021803; BROWN R, 1965, SOCIAL PSYCHOLOGY; CARTWRIGHT D, 1971, J PERS SOC PSYCHOL, V20, P361, DOI 10.1037/h0031912; CECIL EA, 1970, J SOC PSYCHOL, V81, P273, DOI 10.1080/00224545.1970.9922452; CLARK RD, 1971, PSYCHON SCI, V23, P277, DOI 10.3758/BF03336111; CLARK RD, 1971, PSYCHOL BULL, V76, P251, DOI 10.1037/h0031567; COLLINS BE, 1964, SOCIAL PSYCHOLOGY GR; COSTELLO TW, 1963, PSYCHOLOGY ADMINISTR; Cummings L. L., 1968, PERS ADMIN, V31, P38; DION KL, 1970, ADV EXPTL SOCIAL PSY, V5; FLANDERS JP, 1967, J PERS SOC PSYCHOL, V5, P91, DOI 10.1037/h0024204; Janis I. L., 1972, VICTIMS GROUP THINK; Kogan N., 1964, RISK TAKING STUDY CO; MAIER NRF, 1962, CREATIVE MANAGEMENT; MARCH JG, 1959, ORGANIZATIONS; MARQUIS DG, 1962, IMR-IND MANAG REV, V3, P8; PRUITT DG, 1971, J PERS SOC PSYCHOL, V20, P495, DOI 10.1037/h0031923; PRUITT DG, 1971, J PERS SOC PSYCHOL, V20, P339, DOI 10.1037/h0031922; SHULL FA, 1965, 1 SO ILL U BUS RES B; SHULL FA, 1970, ORGANIZATIONAL DECIS; Stoner J. A. F., 1961, THESIS MASSACHUSETTS; VINOKUR A, 1971, J PERS SOC PSYCHOL, V20, P472, DOI 10.1037/h0031926; VINOKUR A, 1971, PSYCHOL BULL, V76, P231, DOI 10.1037/h0031568; VINOKUR A, 1969, J PERS SOC PSYCHOL, V13, P207, DOI 10.1037/h0028155; WALLACH MA, 1962, J ABNORM PSYCHOL, V65, P75, DOI 10.1037/h0044376; WALLACH MA, 1970, J PERS SOC PSYCHOL, V14, P149, DOI 10.1037/h0028775; WALLACH MA, 1964, J ABNORM SOC PSYCH, V68, P263, DOI 10.1037/h0042190; WHYTE WH, 1956, ORGANIZATION MAN; ZAJONC RB, 1968, J EXP SOC PSYCHOL, V4, P89, DOI 10.1016/0022-1031(68)90052-8	30	10	10	0	1	ACAD MANAGEMENT	BRIARCLIFF MANOR	PACE UNIV, PO BOX 3020, 235 ELM RD, BRIARCLIFF MANOR, NY 10510-8020	0001-4273			ACAD MANAGE J	Acad. Manage. J.		1973	16	3					412	422		10.2307/255002				11	Business; Management	Business & Economics	R2931	WOS:A1973R293100005					2019-01-18	
J	ONDRACK, DA				ONDRACK, DA			EMERGING OCCUPATIONAL VALUES - REVIEW AND SOME FINDINGS	ACADEMY OF MANAGEMENT JOURNAL			English	Article									UNIV TORONTO,FAC MANAGEMENT STUDIES,TORONTO,ONTARIO,CANADA							BAY C, 1967, J SOC ISSUES, V23, P76, DOI 10.1111/j.1540-4560.1967.tb00587.x; BENNIS WG, 1966, CHANGING ORGANIZATIO; BLOCK J, 1968, UNDERSTANDING ADOLES; CAMPBELL DT, 1967, EXPTL QUASI EXPTL DE; COX A, 1968, CRISIS COLUMBIA; FLACKS R, 1967, J SOC ISSUES, V23, P52, DOI 10.1111/j.1540-4560.1967.tb00586.x; FLEISHMAN EA, 1955, LEADERSHIP SUPERVISI; Herzberg F, 1959, MOTIVATION WORK; KENISTON K, 1967, J SOC ISSUES, V23, P108, DOI 10.1111/j.1540-4560.1967.tb00589.x; Kilpatrick F. P., 1964, IMAGE FEDERAL SERVIC; LEHMAN IJ, 1969, MICHIGAN STATE U 195; MAIN J, 1969, FORTUNE          JUN, P73; MANHARDT PJ, 1972, PERS PSYCHOL, V25, P361, DOI 10.1111/j.1744-6570.1972.tb01111.x; MINER JB, 1971, ADMIN SCI QUART, V16, P351, DOI 10.2307/2391907; MORRIS C, 1971, J PERS SOC PSYCHOL, V20, P254, DOI 10.1037/h0031676; ONDRACK DA, 1971, PERS ADMIN, V34, P8; PETERSON RE, 1968, DAEDALUS, V97, P293; SAMPSON EE, 1967, J SOC ISSUES, V23, P1, DOI 10.1111/j.1540-4560.1967.tb00584.x; SCHEIN EH, 1967, ADMIN SCI QUART, V11, P601, DOI 10.2307/2391078; TRENT RW, 1967, J SOCIAL ISSUES, V23, P34; VROOM VH, 1960, SOME PERSONALITY DET; WATTS WA, 1966, J APPL BEHAV SCI, V2, P41, DOI 10.1177/002188636600200104	22	12	12	0	1	ACAD MANAGEMENT	BRIARCLIFF MANOR	PACE UNIV, PO BOX 3020, 235 ELM RD, BRIARCLIFF MANOR, NY 10510-8020	0001-4273			ACAD MANAGE J	Acad. Manage. J.		1973	16	3					423	432		10.2307/255003				10	Business; Management	Business & Economics	R2931	WOS:A1973R293100006					2019-01-18	
J	STOESS, AW				STOESS, AW			CONFORMITY BEHAVIOR OF MANAGERS AND THEIR WIVES	ACADEMY OF MANAGEMENT JOURNAL			English	Article									UNIV NEVADA,RENO,NV 89507							DAVIS K, 1971, BUSINESS SOC ENVIRON; DUBNO P, 1971, PERS PSYCHOL, V24, P63, DOI 10.1111/j.1744-6570.1971.tb00359.x; DUBNO P, 1969, PERS PSYCHOL, V22, P269, DOI 10.1111/j.1744-6570.1969.tb00332.x; FLEISHMAN EA, 1962, PERS PSYCHOL, V15, P127, DOI 10.1111/j.1744-6570.1962.tb01855.x; FOSTER PB, 1968, THESIS U OREGON; GHISELLI EE, 1960, PERS PSYCHOL, V13, P1, DOI 10.1111/j.1744-6570.1960.tb01514.x; LEONARD RC, 1969, HUM ORGAN, V28, P110, DOI 10.17730/humo.28.2.2430657p78124788; MAHONEY TA, 1960, PERS PSYCHOL, V13, P147; MINER JB, 1962, ADMIN SCI QUART, V7, P96, DOI 10.2307/2390635; MINER JB, 1965, MATHEMATICAL EXPLORA; STOESS AW, 1967, THESIS U OREGON; Tomkins S.S., 1957, TOMKINS HORN PICTURE; WHYTE WH, 1951, FORTUNE, V44, P109; WHYTE WH, 1951, FORTUNE          OCT, V44, P86; WHYTE WH, 1956, ORGANIZATION MAN	15	1	1	0	2	ACAD MANAGEMENT	BRIARCLIFF MANOR	PACE UNIV, PO BOX 3020, 235 ELM RD, BRIARCLIFF MANOR, NY 10510-8020	0001-4273			ACAD MANAGE J	Acad. Manage. J.		1973	16	3					433	441		10.2307/255004				9	Business; Management	Business & Economics	R2931	WOS:A1973R293100007					2019-01-18	
J	KLEIN, SM				KLEIN, SM			GEOGRAPHICAL IMPACT ON COGNITIONS OF NEW FACTORY WORKERS - COMPARATIVE FACTOR ANALYSIS	ACADEMY OF MANAGEMENT JOURNAL			English	Article									CLEVELAND STATE UNIV,DEPT MANAGEMENT & LABOR & IND RELATIONS,CLEVELAND,OH 44115							Coch L, 1948, HUM RELAT, V1, P512, DOI 10.1177/001872674800100408; Crozier M., 1965, BUREAUCRATIC PHENOME; DAWIS RV, 1968, 47 MINN STUD VOC REH; DENHARDT RB, 1968, ADMIN SCI QUART, V13, P441, DOI 10.2307/2391052; Fiedler F. E., 1967, THEORY LEADERSHIP EF; FORD TR, 1962, SO APPALACHIAN; FRENCH JRP, 1960, HUM RELAT, V13, P3, DOI 10.1177/001872676001300101; GRIMES AJ, 1972, ACAD MANAGE J, V15, P9, DOI 10.2307/254798; HARMON HH, 1960, MODERN FACTOR ANALYS; Herzberg F, 1959, MOTIVATION WORK; HULIN CL, 1968, PSYCHOL BULL, V69, P41, DOI 10.1037/h0025356; HULIN CL, 1966, J APPL PSYCHOL, V50, P280, DOI 10.1037/h0023613; KATZELL RA, 1961, J APPL PSYCHOL, V45, P65, DOI 10.1037/h0040611; Marrow Alfred J., 1967, MANAGEMENT PARTICIPA; MOORE WE, 1969, HDB SOCIAL PSYCHOLOG, V4; SHEPARD JM, 1970, IND LABOR RELAT REV, V23, P207, DOI 10.2307/2521792; TURNER AN, 1965, INDUSTRIAL JOBS WORK; WELLER JE, 1965, YESTERDAYS PEOPLE LI; WOODWARD J, 1965, INDUSTRIAL THEORY PR; ZURCHER L, 1965, AM SOCIOLOGICAL REV, V30	20	1	1	0	1	ACAD MANAGEMENT	BRIARCLIFF MANOR	PACE UNIV, PO BOX 3020, 235 ELM RD, BRIARCLIFF MANOR, NY 10510-8020	0001-4273			ACAD MANAGE J	Acad. Manage. J.		1973	16	3					442	453		10.2307/255005				12	Business; Management	Business & Economics	R2931	WOS:A1973R293100008					2019-01-18	
J	PRUDEN, HO				PRUDEN, HO			UPWARD MOBILE, INDIFFERENT, AND AMBIVALENT TYPOLOGY OF MANAGERS	ACADEMY OF MANAGEMENT JOURNAL			English	Article									UNIV TEXAS,GRAD SCH BUSINESS,AUSTIN,TX 78712							ABRAHAMSON M, 1965, ADMIN SCI QUART, V10, P98, DOI 10.2307/2391652; *AM MARK ASS, 1969 ROST; Argyris C, 1960, UNDERSTANDING ORGANI; Argyris C., 1964, INTEGRATING INDIVIDU; ARGYRIS C, 1957, PERSONALITY ORGANIZA; BONJEAN CM, 1968, J APPLIED BEHAVIORAL, P299; BROWN DR, 1968, THESIS U OREGON; BRUCE GD, 1971, SOCIOL QUART, V12, P238, DOI 10.1111/j.1533-8525.1971.tb01354.x; DUBIN R, 1969, THEORY BUILDING; FIEDLER FE, 1970, VALIDATION EXTENSION; GOULD J, 1964, DICTIONARY SOCIAL SC; GOULDNER AW, 1957, ADMIN SCI QUART, V2, P281, DOI 10.2307/2391000; HALL RH, 1972, ADMIN SCI QUART, V17, P79, DOI 10.2307/2392096; LOY JW, 1969, AM SOCIOL REV, V34, P73, DOI 10.2307/2092788; McGregor D, 1960, HUMAN SIDE ENTERPRIS; McKinney J., 1966, CONSTRUCTIVE TYPOLOG; Merton RK, 1940, SOC FORCES, V18, P560, DOI 10.2307/2570634; PRESTHUS R, 1962, ORGANIZATIONAL SOC; SCOTT WG, 1972, ORGANIZATION THEORY; SEEMAN M, 1959, AM SOCIOL REV, V24, P783, DOI 10.2307/2088565; TAUSKY C, 1965, AM SOCIOL REV, V30, P725, DOI 10.2307/2091140; Veldman D.J., 1967, FORTRAN PROGRAMMING; WARD JH, 1963, J AM STAT ASSOC, V58, P236, DOI 10.2307/2282967; WELDON PD, 1972, ADMIN SCI QUART, V17, P76, DOI 10.2307/2392095; WHYTE WH, 1956, ORGANIZATION MAN	25	9	9	0	2	ACAD MANAGEMENT	BRIARCLIFF MANOR	PACE UNIV, PO BOX 3020, 235 ELM RD, BRIARCLIFF MANOR, NY 10510-8020	0001-4273			ACAD MANAGE J	Acad. Manage. J.		1973	16	3					454	464		10.2307/255006				11	Business; Management	Business & Economics	R2931	WOS:A1973R293100009					2019-01-18	
J	SHIRLEY, RC				SHIRLEY, RC			ANALYSIS OF EMPLOYEE AND PHYSICIAN ATTITUDES TOWARD HOSPITAL MERGER	ACADEMY OF MANAGEMENT JOURNAL			English	Article									LOUISIANA STATE UNIV,BATON ROUGE,LA 70803							Cannon N L, 1968, Hospitals, V42, P55; CANNON N L, 1961, Del Med J, V33, P281; COSTELLO TW, 1963, ADMIN SCI QUART, V8, P235, DOI 10.2307/2390901; COSTELLO TW, 1963, PSYCHOLOGY ADMINISTR; EMERY F, 1966, SOME THEORIES ORGANI; Ginzberg E., 1957, EFFECTING CHANGE LAR; GREINER LE, 1967, HARVARD BUS REV, V45, P119; GUEST RH, 1962, ORGANIZATIONAL CHANG; Harris A R, 1970, Mod Hosp, V114, P92; MANN FC, 1961, MANAGING MAJOR CHANG; McGrath J H, 1970, Del Med J, V42, P35; OCONNELL JJ, 1968, MANAGING ORGANIZATIO; PETERS JP, 1967, P ANNUAL SCIENTIFIC, P3; SAYLES LR, 1962, HUMAN ORGANIZATION, V21; WEIL PA, 1969, THESIS U IOWA; 1967, MODERN HOSPITAL, V109	16	15	15	3	6	ACAD MANAGEMENT	BRIARCLIFF MANOR	PACE UNIV, PO BOX 3020, 235 ELM RD, BRIARCLIFF MANOR, NY 10510-8020	0001-4273			ACAD MANAGE J	Acad. Manage. J.		1973	16	3					465	480		10.2307/255007				16	Business; Management	Business & Economics	R2931	WOS:A1973R293100010					2019-01-18	
J	KHANDWALLA, PN				KHANDWALLA, PN			VIABLE AND EFFECTIVE ORGANIZATIONAL DESIGNS OF FIRMS	ACADEMY OF MANAGEMENT JOURNAL			English	Article									MCGILL UNIV, FAC MANAGEMENT, MONTREAL, QUEBEC, CANADA							Burns T, 1961, MANAGEMENT INNOVATIO; CYERT RM, 1963, BEHAVIORAL THEORY FI; KATZ D, 1966, SOCIAL PSYCHOLOGY OR; Khandwalla P.N., 1972, UNCERTAINTY OPTIMAL; KHANDWALLA PN, 1970, THESIS CARNEGIE MELL; Koontz H., 1968, PRINCIPLES MANAGEMEN; LAWRENCE P, 1967, ORGANIZATION ITS ENV; Likert R., 1961, NEW PATTERNS MANAGEM; LORSCH J, 1970, STUDIES ORGANIZATION; March J. G., 1958, ORGANIZATIONS; MORSE J, 1970, STUDIES ORGANIZATION; PUGH DS, 1969, ADMIN SCI QUART, V14, P91, DOI 10.2307/2391366; PUGH DS, 1968, ADMIN SCI QUART, V13, P65, DOI 10.2307/2391262; SEILER JA, 1967, SYSTEMS ANALYSIS ORG; THOMPSON JD, 1967, ORGANIZATIONS ACTION; Woodward Joan, 1958, MANAGEMENT TECHNOLOG	16	86	89	0	5	ACAD MANAGEMENT	BRIARCLIFF MANOR	PACE UNIV, PO BOX 3020, 235 ELM RD, BRIARCLIFF MANOR, NY 10510-8020 USA	0001-4273	1948-0989		ACAD MANAGE J	Acad. Manage. J.		1973	16	3					481	495		10.2307/255008				15	Business; Management	Business & Economics	R2931	WOS:A1973R293100011					2019-01-18	
J	JAMIESON, BD				JAMIESON, BD			BEHAVIORAL PROBLEMS WITH MANAGEMENT BY OBJECTIVES	ACADEMY OF MANAGEMENT JOURNAL			English	Article									UNIV CANTERBURY,PSYCHOL & SOCIOL DEPT,CHRISTCHURCH,NEW ZEALAND							BRANDIS J, 1971, MANAGEMENT OBJECTIVE, V1, P32; CARROLL SJ, 1970, ADMIN SCI QUART, V15, P295, DOI 10.2307/2391619; Drucker P., 1954, PRACTICE MANAGEMENT; GILL J, 1970, PERSONNEL MANAGEMENT, V1, P18; HOWELL RA, 1970, BUS HORIZONS, V13, P41, DOI 10.1016/0007-6813(70)90029-7; HUMBLE JW, 1967, IMPROVING BUSINESS R; KELMAN HC, 1961, PUBLIC OPIN QUART, V25, P57, DOI 10.1086/266996; LASAGNA JB, 1971, HARVARD BUS REV, V49, P64; LEVINSON H, 1970, HARVARD BUS REV, V48, P125; LIKERT R, 1967, HUMAN ORGANIZATION; MAIER NRF, 1958, PERSONNEL, V34, P27; Odiorne G. S., 1965, MANAGEMENT OBJECTIVE; PASCOE BJ, 1969, O M B, V24, P139; TOSI HL, 1968, ACAD MANAGE J, V11, P415, DOI 10.2307/254890; VALENTINE RF, 1966, PERFORMANCE OBJECTIV; WICKENS JD, 1968, J MANAGE STUD, V5, P365, DOI 10.1111/j.1467-6486.1968.tb00994.x; WIKSTROM WS, 1966, C BOARD RECORD   JUL, P27	17	11	11	1	4	ACAD MANAGEMENT	BRIARCLIFF MANOR	PACE UNIV, PO BOX 3020, 235 ELM RD, BRIARCLIFF MANOR, NY 10510-8020	0001-4273			ACAD MANAGE J	Acad. Manage. J.		1973	16	3					496	505		10.2307/255009				10	Business; Management	Business & Economics	R2931	WOS:A1973R293100012					2019-01-18	
J	SEARFOSS, DG; MONCZKA, RM				SEARFOSS, DG; MONCZKA, RM			PERCEIVED PARTICIPATION IN BUDGET PROCESS AND MOTIVATION TO ACHIEVE BUDGET	ACADEMY OF MANAGEMENT JOURNAL			English	Article									ARIZONA STATE UNIV,COLL BUSINESS ADM,TEMPE,AZ 85281							Adorno T. W., 1960, AUTHORITARIAN PERSON; ANDREWS IR, 1963, IND RELAT, V3, P29, DOI 10.1111/j.1468-232X.1963.tb00807.x; Argyris C, 1952, IMPACT BUDGETS PEOPL; BLANKENSHIP LV, 1968, ADMIN SCI QUART, V13, P106, DOI 10.2307/2391263; Coch L, 1948, HUM RELAT, V1, P512, DOI 10.1177/001872674800100408; DUNBAR RLM, 1971, ADMIN SCI QUART, V16, P88, DOI 10.2307/2391292; FERTAKIS JP, 1967, THESIS U WASHINGTON; HANSON EI, 1966, ACCOUNT REV, V41, P239; Hofstede G, 1967, GAME BUDGET CONTROL; KAHN RL, 1953, GROUP DYNAMICS; LAWLER EE, 1967, PERS ADMIN, V30, P22; LAWLER EE, 1971, PAY ORGANIZATIONAL E; LAWLER EE, 1967, PERS ADMIN, V30, P3; LOCKE EA, 1967, J APPL PSYCHOL, V51, P120, DOI 10.1037/h0024471; LOCKE EA, 1966, J APPL PSYCHOL, V50, P60, DOI 10.1037/h0022937; LOCKE EA, 1966, AM J PSYCHOL, V79, P451, DOI 10.2307/1420886; LOWIN A, 1968, ORGAN BEHAV HUM PERF, V3, P68, DOI 10.1016/0030-5073(68)90028-7; LYKKEN DT, 1968, PSYCHOL BULL, V70, P151, DOI 10.1037/h0026141; MARCH J, 1967, ORGANIZATIONS; Porter L.W., 1968, MANAGERIAL ATTITUDES; RAIA AP, 1966, CALIFORNIA MANAGEMEN, V3, P49; RITCHIE JB, 1970, PERS PSYCHOL, V23, P347, DOI 10.1111/j.1744-6570.1970.tb01661.x; SAUNDERS DR, 1956, EDUC PSYCHOL MEAS, V16, P209, DOI 10.1177/001316445601600205; SCHIFF M, 1970, ACCOUNT REV, V45, P259; SEARFOSS D, 1972, THESIS INDIANA U; STEDRY AC, 1966, BEHAV SCI, V11, P459, DOI 10.1002/bs.3830110605; STEDRY AC, 1967, BUDGET CONTROL COST; TANNENBAUM AS, 1956, J ABNORM SOC PSYCH, V53, P272, DOI 10.1037/h0040282; TOPPEN JT, 1965, PERCEPT MOTOR SKILL, V20, P1193, DOI 10.2466/pms.1965.20.3c.1193; TOPPEN JT, 1965, PERCEPT MOTOR SKILL, V20, P259, DOI 10.2466/pms.1965.20.1.259; TOSI H, 1970, PERS PSYCHOL, V23, P91, DOI 10.1111/j.1744-6570.1970.tb01638.x; VROOM VH, 1960, PERSONALITY DETERMIN; WOOD DA, 1972, J EDUC MEAS, V9, P311, DOI 10.1111/j.1745-3984.1972.tb00963.x; WOOD DA, 1972, MODERATING EFFECTS A	34	19	19	0	3	ACAD MANAGEMENT	BRIARCLIFF MANOR	PACE UNIV, PO BOX 3020, 235 ELM RD, BRIARCLIFF MANOR, NY 10510-8020	0001-4273			ACAD MANAGE J	Acad. Manage. J.		1973	16	4					541	554		10.2307/254689				14	Business; Management	Business & Economics	R6865	WOS:A1973R686500001					2019-01-18	
J	MCMILLAN, CJ; HICKSON, DJ; HININGS, CR; SCHNECK, RE				MCMILLAN, CJ; HICKSON, DJ; HININGS, CR; SCHNECK, RE			STRUCTURE OF WORK ORGANIZATIONS ACROSS SOCIETIES	ACADEMY OF MANAGEMENT JOURNAL			English	Article									UNIV BRADFORD,MANAGEMENT CTR,ORG ANAL RES UNIT,BRADFORD,ENGLAND; UNIV ASTON,IND ADM RES UNIT,BIRMINGHAM,ENGLAND; UNIV ALBERTA,FAC BUSINESS ADM & COMMERCE,EDMONTON,ALBERTA,CANADA							BENNIS W, 1965, CHANGING ORGANIZATIO; Blau P., 1956, BUREAUCRACY MODERN S; BLAU PM, 1963, AM POLIT SCI REV, V57, P305, DOI 10.2307/1952824; Brooke M., 1970, STRATEGY MULTINATION; BURRAGE M, 1969, BRIT J SOCIOL, V20, P117, DOI 10.2307/588524; CLARK SD, 1968, DEVELOPING CANADIAN; Crozier Michel, 1964, BUREAUCRATIC PHENOME; EVAN WM, 1966, HUM ORGAN, V25, P51, DOI 10.17730/humo.25.1.v7354t3822136580; EVAN WM, 1965, ADMIN SCI QUART, V10, P52, DOI 10.2307/2391649; GLASER W, 1963, HOSPITAL MODERN SOC; HALL RH, 1963, AM J SOCIOL, V69, P32, DOI 10.1086/223508; HALL RH, 1966, AM J SOCIOL, V72, P267, DOI 10.1086/224294; HICKSON DJ, 1969, ADMIN SCI QUART, V14, P378, DOI 10.2307/2391134; HICKSON DJ, 1974, SOCIOLOGY, V8; HININGS CR, 1971, SOCIOLOGY, V5, P83, DOI 10.1177/003803857100500106; INKSON JHK, 1970, ADMIN SCI QUART, V15, P318, DOI 10.2307/2391622; INKSON JHK, 1970, J MANAGE STUD, V7, P347; LANDSBERGER HA, 1970, COMPARATIVE PERSPECT; LEVY P, 1969, SOCIOLOGY, V3, P193, DOI 10.1177/003803856900300204; Lipset S. M., 1968, REVOLUTION COUNTERRE; Lipset S.M, 1963, 1 NEW NATION; MARCUSE H, 1964, 1 DIMENSIONAL MAN; NAEGELE KD, 1961, CANADIAN SOC; NIE NH, 1970, STATISTICAL PACKAGE; OLSEN P, 1961, AM MASS SOC; PORTER J, 1965, VERTICAL MOSAIC ANAL; PUGH DS, 1969, ADMIN SCI QUART, V14, P91, DOI 10.2307/2391366; PUGH DS, 1968, ADMIN SCI QUART, V13, P65, DOI 10.2307/2391262; PUGH DS, 1969, ADMIN SCI QUART, V14, P115, DOI 10.2307/2391367; PUGH DS, 1963, ADMIN SCI QUART, V8, P289, DOI 10.2307/2390971; RICHARDSON SA, 1956, ADMIN SCI QUART, V1, P189, DOI 10.2307/2390986; Safarian A.E, 1966, FOREIGN OWNERSHIP CA; Safarian A. E., 1969, PERFORMANCE FOREIGN; SIMON HA, 1957, ADMINISTRATIVE BEHAV; SJOBERG G, 1970, COMPARATIVE PERSPECT; THOMPSON JD, 1967, ORGANIZATIONS ACTION; Tocqueville A., 1954, DEMOCRACY AM; Toffler A., 1970, FUTURE SHOCK; UDY SH, 1965, HDB ORGANIZATIONS; UDY SH, 1959, ORGANIZATION WORK; WATKINS M, 1968, FOREIGN OWNERSHIP ST; Weber M., 1948, MAX WEBER ESSAYS SOC	42	29	29	0	3	ACAD MANAGEMENT	BRIARCLIFF MANOR	PACE UNIV, PO BOX 3020, 235 ELM RD, BRIARCLIFF MANOR, NY 10510-8020	0001-4273			ACAD MANAGE J	Acad. Manage. J.		1973	16	4					555	569		10.2307/254690				15	Business; Management	Business & Economics	R6865	WOS:A1973R686500002					2019-01-18	
J	NEGANDHI, AR; REIMANN, BC				NEGANDHI, AR; REIMANN, BC			CORRELATES OF DECENTRALIZATION - CLOSED AND OPEN SYSTEMS PERSPECTIVES	ACADEMY OF MANAGEMENT JOURNAL			English	Article									KENT STATE UNIV CTR BUSINESS & ECON RES,KENT,OH 44240; DREXEL UNIV,PHILADELPHIA,PA 19104							BODDEWYN J, 1970, MANAGE INT REV, V10, P3; Burns T, 1961, MANAGEMENT INNOVATIO; Chandler Jr A. D., 1962, STRATEGY STRUCTURE C; DILL WR, 1958, ADMIN SCI QUART, V2, P409, DOI 10.2307/2390794; EISENSTADT SH, 1964, COMPLEX ORGANIZATION; EMERY FE, 1965, HUM RELAT, V18, P21, DOI 10.1177/001872676501800103; ETZIONI A, 1964, MODERN ORGANIZATIONS; EVAN WM, 1963, MANAGE SCI, V9, P468, DOI 10.1287/mnsc.9.3.468; Glaser B. G., 1965, AWARENESS DYING; HARVEY E, 1968, AM SOCIOL REV, V33, P247, DOI 10.2307/2092391; HICKSON DJ, 1969, ADMIN SCI QUART, V14, P378, DOI 10.2307/2391134; INKSON JHK, 1970, ADMIN SCI QUART, V15, P318, DOI 10.2307/2391622; KATZ D, 1966, SOCIAL PSYCHOLOGY; LAWRENCE PR, 1969, ORGANIZATION ENVIRON; LEFTON M, 1966, AM SOCIOL REV, V31, P802, DOI 10.2307/2091659; MILLER JG, 1966, AM PSYCHOLOGIST, V10, P513; NEGANDHI A, 1971, COMPARATIVE MANAGEME; NEGANDHI AR, 1972, ACAD MANAGE J, V15, P137, DOI 10.2307/254904; Parsons T., 1961, THEORIES SOC; PERROW C, 1965, HDB ORGANIZATIONS; PUGH DS, 1969, ADMIN SCI QUART, V14, P91, DOI 10.2307/2391366; PUGH DS, 1968, ADMIN SCI QUART, V13, P65, DOI 10.2307/2391262; THOMPSON JD, 1967, ORGANIZATION ACTION; Thorelli H.B., 1967, P ACADEMY MANAGEMENT, P66; von Bertalanffy L, 1956, GENERAL SYSTEMS YB, V1, P1; Weber Max, 1922, THEORY SOCIAL ECONOM; WOODWARD J, 1965, INDUSTRIAL ORGANIZAT	27	22	24	1	8	ACAD MANAGEMENT	BRIARCLIFF MANOR	PACE UNIV, PO BOX 3020, 235 ELM RD, BRIARCLIFF MANOR, NY 10510-8020	0001-4273			ACAD MANAGE J	Acad. Manage. J.		1973	16	4					570	582		10.2307/254691				13	Business; Management	Business & Economics	R6865	WOS:A1973R686500003					2019-01-18	
J	GRIMES, AJ; KLEIN, SM				GRIMES, AJ; KLEIN, SM			TECHNOLOGICAL IMPERATIVE - RELATIVE IMPACT OF TASK UNIT, MODAL TECHNOLOGY, AND HIERARCHY ON STRUCTURE	ACADEMY OF MANAGEMENT JOURNAL			English	Article									CLEVELAND STATE UNIV,JAMES J NANCE SCH BUSINESS,DEPT MANAGEMENT,CLEVELAND,OH 44115; CLEVELAND STATE UNIV,JAMES J NANCE SCH BUSINESS,DEPT IND & LABOR RELATIONS,CLEVELAND,OH 44115; UNIV KENTUCKY,COLL BUSINESS & ECON,LEXINGTON,KY 40506							ALDRICH HE, 1972, ADMIN SCI QUART, V17, P26, DOI 10.2307/2392089; Becker S. W., 1966, ADM SCI Q, V11, P315; BLANKENSHIP V, 1968, ADM SCI Q, V13, P106; DELBECQ AL, 1969, MATRIX ORGANIZATION; Fiedler F. E., 1967, THEORY LEADERSHIP EF; GOULDNER AW, 1957, ADMIN SCI QUART, V2, P281, DOI 10.2307/2391000; Grimes A. J., 1970, ACAD MANAGE J, V13, P9; HALL RA, 1962, ADMINISTRATIVE SCIEN, V6, P295; HICKSON DJ, 1969, ADMIN SCI QUART, V14, P378, DOI 10.2307/2391134; HICKSON DJ, 1966, ADMINISTRATIVE SCIEN, V11, P229; KATZ D, 1966, SOCIAL PSYCHOLOGY; KELLY J, 1969, IS SCIENTIFIC MANAGE; LAWRENCE PR, 1969, ORGANIZATION ENVIRON; MOHR LB, 1971, ADMIN SCI QUART, V16, P444, DOI 10.2307/2391764; Parsons T., 1960, STRUCTURE PROCESS MO; PERROW C, 1967, AM SOCIOL REV, V32, P194, DOI 10.2307/2091811; PHEYSEY DC, 1971, ADMIN SCI QUART, V16, P61, DOI 10.2307/2391289; PORTER LW, 1962, J APPLIED PSYCHOLOGY, V46, P379; SHULL FA, 1965, MATRIX STRUCTURE PRO; STINCHCOMBE AL, 1959, ADMIN SCI QUART, V4, P168, DOI 10.2307/2390676; THOMPSON JD, 1967, ORGANIZATIONS ACTION; WADE LL, 1967, HUM ORGAN, V26, P40, DOI 10.17730/humo.26.1-2.421842632k0n4u01; WOODWARD J, 1965, INDUSTRIAL ORGANIZAT	23	17	17	0	1	ACAD MANAGEMENT	BRIARCLIFF MANOR	PACE UNIV, PO BOX 3020, 235 ELM RD, BRIARCLIFF MANOR, NY 10510-8020	0001-4273			ACAD MANAGE J	Acad. Manage. J.		1973	16	4					583	597		10.2307/254692				15	Business; Management	Business & Economics	R6865	WOS:A1973R686500004					2019-01-18	
J	KLEIN, SM				KLEIN, SM			PAY FACTORS AS PREDICTORS TO SATISFACTION - COMPARISON OF REINFORCEMENT, EQUITY, AND EXPECTANCY	ACADEMY OF MANAGEMENT JOURNAL			English	Article									CLEVELAND STATE UNIV,JAMES J NANCE SCH BUSINESS,DEPT MANAGEMENT,CLEVELAND,OH 44115; CLEVELAND STATE UNIV,JAMES J NANCE SCH BUSINESS,DEPT IND & LABOR RELATIONS,CLEVELAND,OH 44115							ADAMS JS, 1968, J PERS SOC PSYCHOL, V10, P315, DOI 10.1037/h0026613; ADAMS JS, 1963, J ABNORM PSYCHOL, V67, P422, DOI 10.1037/h0040968; ADAMS JS, 1965, ADV EXPTL SOCIAL PSY, V2; ANDREWS IR, 1963, IND RELAT, V3, P29, DOI 10.1111/j.1468-232X.1963.tb00807.x; CAMPBELL JP, 1970, MANAGERIAL BEHAVIOR; GELLERMAN JW, 1963, MOTIVATION PRODUCTIV; GRAEN G, 1969, J APPL PSYCHOL, V53, P1, DOI 10.1037/h0027100; HAIRE M, 1967, J APPL PSYCHOL, V51, P1, DOI 10.1037/h0024870; HINRICHS JR, 1969, J APPL PSYCHOL, V53, P481, DOI 10.1037/h0028655; HOMANS GC, 1961, SOCIAL BEHAVIOR ITS; JACQUES E, 1961, EQUITABLE PAYMENT; KLEIN SM, 1966, PERS PSYCHOL, V19, P195, DOI 10.1111/j.1744-6570.1966.tb02028.x; LAWLER EE, 1968, J PERS SOC PSYCHOL, V10, P306, DOI 10.1037/h0026614; LAWLER EE, 1971, PAY ORGANIZATIONAL E; PATCHEN M, 1961, CHOICE WAGE COMPARIS; PENZER WN, 1969, PERS PSYCHOL, V22, P185, DOI 10.1111/j.1744-6570.1969.tb02301.x; Porter L.W., 1968, MANAGERIAL ATTITUDES; ROTHE HF, 1960, PERSONNEL, V37, P20; VROOM VH, 1964, WORK MOTIVATION	19	27	27	0	2	ACAD MANAGEMENT	BRIARCLIFF MANOR	PACE UNIV, PO BOX 3020, 235 ELM RD, BRIARCLIFF MANOR, NY 10510-8020	0001-4273			ACAD MANAGE J	Acad. Manage. J.		1973	16	4					598	610		10.2307/254693				13	Business; Management	Business & Economics	R6865	WOS:A1973R686500005					2019-01-18	
J	GRAEN, G; DANSEREA.F; MINAMI, T; CASHMAN, J				GRAEN, G; DANSEREA.F; MINAMI, T; CASHMAN, J			LEADERSHIP BEHAVIORS AS CUES TO PERFORMANCE EVALUATION	ACADEMY OF MANAGEMENT JOURNAL			English	Article									UNIV ILLINOIS, PSYCHOL DEPT, CHAMPAIGN, IL 61820 USA; UNIV ILLINOIS, INST LABOR & IND RELATIONS, CHAMPAIGN, IL 61820 USA; SUNY Buffalo, SCH MANAGEMENT, BUFFALO, NY 14214 USA; KEIO UNIV, HUMAN RELATIONS DEPT, TOKYO, JAPAN							ANDERSON LR, 1966, J SOC PSYCHOL, V69, P305, DOI 10.1080/00224545.1966.9919730; BENNIS WG, 1966, CHANGING ORGANIZATIO; CAMPBELL JP, 1970, MANAGERIAL BEHAVIOR; DANSEREAU F, 1970, THESIS U ILLINOIS; Fiedler F. E., 1967, THEORY LEADERSHIP EF; FLEISHMAN EA, 1962, PERS PSYCHOL, V15, P43, DOI 10.1111/j.1744-6570.1962.tb01845.x; FLEISHMAN EA, 1970, PERS PSYCHOL, V23, P169, DOI 10.1111/j.1744-6570.1970.tb01644.x; FLEISHMAN EA, 1957, LEADER BEHAVIOR DESC; FLEISHMAN EA, 1955, LEADERSHIP SUPERVISI; FOGLI L, 1971, J APPL PSYCHOL, V55, P3, DOI 10.1037/h0030631; GRAEN G, 1972, ORGAN BEHAV HUM PERF, V7, P216, DOI 10.1016/0030-5073(72)90016-5; GRAEN G, 1969, J APPLIED PSYCHOLOGY, V53; GRAEN G, HDB INDUSTRIAL ORGAN; HARMAN HH, 1960, MODERN FACTOR ANALYS; Kahn R. L., 1964, ORGANIZATIONAL STRES; KORMAN AK, 1966, PERS PSYCHOL, V19, P349, DOI 10.1111/j.1744-6570.1966.tb00310.x; Likert R., 1961, NEW PATTERNS MANAGEM; MCNEMAR Q, 1962, PSYCHOLOGICAL STATIS; SMITH PC, 1963, J APPL PSYCHOL, V47, P149, DOI 10.1037/h0047060; STODGDILL RN, 1957, LEADER BEHAVIOR ITS; VROOM VH, 1964, WORK MOTIVATION; WINER BJ, 1962, STATISTICAL PRINCIPL	22	17	17	1	7	ACAD MANAGEMENT	BRIARCLIFF MANOR	PACE UNIV, PO BOX 3020, 235 ELM RD, BRIARCLIFF MANOR, NY 10510-8020 USA	0001-4273			ACAD MANAGE J	Acad. Manage. J.		1973	16	4					611	623		10.2307/254694				13	Business; Management	Business & Economics	R6865	WOS:A1973R686500006					2019-01-18	
J	MCMAHON, JT; PERRITT, GW				MCMAHON, JT; PERRITT, GW			TOWARD A CONTINGENCY THEORY OF ORGANIZATIONAL CONTROL	ACADEMY OF MANAGEMENT JOURNAL			English	Article									UNIV HOUSTON,COLL BUSINESS ADM,HOUSTON,TX 77004; UNIV MIAMI,COLL BUSINESS ADM,MIAMI,FL 33124							ARGYRIS C, 1957, PERSONALITY ORGANIZA; BENNIS WG, 1966, CHANGING ORGANIZATIO; Blake R. R., 1964, MANAGERIAL GRID; CARTWRIGHT D, 1965, HDB ORGANIZATIONS; Crozier Michel, 1964, BUREAUCRATIC PHENOME; DAHL RA, 1957, BEHAV SCI, V2, P201, DOI 10.1002/bs.3830020303; ETZIONI A, 1961, COMPARATIVE ANALYSIS; GULICK L, 1937, PAPERS SCIENCE ADMIN; LAWRENCE PR, 1969, ORGANIZATION ENVIRON; Likert R., 1961, NEW PATTERNS MANAGEM; LIKERT R, 1967, HUMAN ORGANIZATION; March J. G., 1958, ORGANIZATIONS; MCMAHON JT, 1971, ACAD MANAGE J, V14, P327, DOI 10.2307/255077; MOONEY JD, 1947, PRINCIPLES ORGAIZATI; SHEPARD HA, 1965, HDB ORGANIZATIONS; TANNENBAUM AS, 1957, HUM RELAT, V10, P127, DOI 10.1177/001872675701000203; TANNENBAUM AS, 1962, ADMIN SCI QUART, V7, P236, DOI 10.2307/2390857; TANNENBAUM AS, 1968, CONTROL ORGANIZATION; URWICK L, 1944, ELEMENTS ADMINISTRAT; WEBER M, 1947, THEORY SOCIAL ECONOM; WOODWARD J, 1965, INDUSTRIAL ORGANIZAT	21	10	10	0	6	ACAD MANAGEMENT	BRIARCLIFF MANOR	PACE UNIV, PO BOX 3020, 235 ELM RD, BRIARCLIFF MANOR, NY 10510-8020	0001-4273			ACAD MANAGE J	Acad. Manage. J.		1973	16	4					624	635		10.2307/254695				12	Business; Management	Business & Economics	R6865	WOS:A1973R686500007					2019-01-18	
J	WHITE, DD				WHITE, DD			FACTORS AFFECTING EMPLOYEE ATTITUDES TOWARD INSTALLATION OF A NEW MANAGEMENT SYSTEM	ACADEMY OF MANAGEMENT JOURNAL			English	Article									UNIV ARKANSAS,COLL BUSINESS,FAYETTEVILLE,AR 72701							CARROLL SJ, 1969, 77 P AM PSYCH ASS AN, P600; COOK DM, 1968, ACAD MANAGE J, V2, P263; Drucker P., 1954, PRACTICE MANAGEMENT; IVANCEVI.JM, 1970, PERS PSYCHOL, V23, P139, DOI 10.1111/j.1744-6570.1970.tb01642.x; LIKERT R, 1967, HUMAN ORGANIZATION; Odiorne G. S., 1965, MANAGEMENT OBJECTIVE; Porter L.W., 1968, MANAGERIAL ATTITUDES	7	3	3	0	2	ACAD MANAGEMENT	BRIARCLIFF MANOR	PACE UNIV, PO BOX 3020, 235 ELM RD, BRIARCLIFF MANOR, NY 10510-8020	0001-4273			ACAD MANAGE J	Acad. Manage. J.		1973	16	4					636	646		10.2307/254696				11	Business; Management	Business & Economics	R6865	WOS:A1973R686500008					2019-01-18	
J	SMITH, RD; ROBEY, D				SMITH, RD; ROBEY, D			RESEARCH AND APPLICATIONS IN OPERATIONS MANAGEMENT - DISCUSSION OF A PARADOX	ACADEMY OF MANAGEMENT JOURNAL			English	Article									KENT STATE UNIV,KENT,OH 44240; MARQUETTE UNIV,MILWAUKEE,WI 53223							Ackoff R, 1967, MANAGE SCI, V14, pB147, DOI DOI 10.1287/MNSC.14.4.B147; ARGYRIS C, 1971, MANAGE SCI, V17, P275; ARONSON RL, 1970, CONTROL ENGINEERING, V17, P49; BAKER CT, 1960, MANAGE SCI, V6, P311, DOI 10.1287/mnsc.6.3.311; BUFFA ES, 1972, PRODUCTION INVENTORY; BYRD J, 1971, IND ENG, V3, P22; DAY JE, 1970, NAV RES LOGIST Q, V17, P11, DOI 10.1002/nav.3800170103; ELMAGHRABY SE, 1963, J IND ENG, V14, P186; EMERY FE, 1960, MANAGEMENT SCIENCE M, V2; GALBRAITH JR, 1969, MANAGE SCI B-APPL, V15, pB665; GUPTA JND, 1971, INT J PROD RES, V9, P267; HALBRECHT H, 1971, OCT NAT M OP RES SOC; Helgson W., 1961, J IND ENG, V12, P394; HERTZ DB, 1971, INNOVATION       OCT, P11; HOLSTEIN WK, 1968, HARVARD BUS REV, V46, P121; Howell R. S., 1972, Automation, V19, P42; IGNALL EJ, 1965, J IND ENGINEERING, V16, P244; Kilbrdge M., 1961, J IND ENG, V12, P292; KILBRIDGE M, 1966, MANAGE SCI, V12, pB255; Korn K.E., 1967, Computers and Automation, V16, P23; LIVINGSTON J, 1971, HARVARD BUSINESS REV, V49, P78; MASTOR AA, 1970, MANAGE SCI, V16, P728, DOI 10.1287/mnsc.16.11.728; MENSCH G, 1969, MANAGE INT REV, V9, P97; MOODIE CL, 1965, J IND ENGINEERING, V16, P23; Payne S., 1972, INT J PROD RES, V10, P93, DOI DOI 10.1080/00207547208929908; POUNDS W, 1963, INDUSTRIAL SCHEDULIN; RENOUARD CA, 1971, CONTROL ENG, V18, P61; SIMONE AJ, 1972, RELATIONSHIP BETWEEN; SKULL A, 1970, OPER RES QUART, V21, P21, DOI 10.2307/3007911; STARR MK, 1971, B I MANAGEMENT SCIEN, V1, P31; STARR MK, 1964, 24 P ANN M AC MAN; Trist EL, 1951, HUM RELAT, V4, P3, DOI 10.1177/001872675100400101; ZENZ GJ, 1971, J SYSTEMS MANAGEMENT, V22, P24	33	6	7	1	5	ACAD MANAGEMENT	BRIARCLIFF MANOR	PACE UNIV, PO BOX 3020, 235 ELM RD, BRIARCLIFF MANOR, NY 10510-8020	0001-4273			ACAD MANAGE J	Acad. Manage. J.		1973	16	4					647	657		10.2307/254697				11	Business; Management	Business & Economics	R6865	WOS:A1973R686500009					2019-01-18	
J	KRISHNAN, R				KRISHNAN, R			BUSINESS PHILOSOPHY AND EXECUTIVE RESPONSIBILITY	ACADEMY OF MANAGEMENT JOURNAL			English	Article									YOUNGSTOWN STATE UNIV,YOUNGSTOWN,OH 44503							BAUMHART RSJ, 1968, ETHICS BUSINESS; BEARD M, 1962, HISTORY BUSINESS; BERLE AA, 1959, POWER WITHOUT PROPER; BROWN CC, 1971, READINGS MANAGEMENT; CORDINER RJ, 1964, NEW FRONTIERS PROFES; DAVIS K, 1967, BUS HORIZONS, V10, P45, DOI 10.1016/0007-6813(67)90007-9; DOMM D, 1972, 15 ANN C MIDW DIV AC; DRUCKER PF, 1958, J BUS, V31, P81, DOI 10.1086/294178; EWING DW, 1971, HARVARD BUS REV, V49, P22; EWING DW, 1971, HARVARD BUS REV, V49, P12; EWING DW, 1971, HARVARD BUSINESS REV, V49, P155; EWING DW, 1971, HARVARD BUS REV, V49, P146; FORD RN, 1969, PSYCHOL TODAY, V3, P32; Friedman M, 1962, CAPITALISM FREEDOM; LORIG AW, 1967, BUS HORIZONS, V10, P51, DOI 10.1016/0007-6813(67)90045-6; Means G, 1932, MODERN CORPORATION P; MOORE RE, 1972, READINGS CURRENT SOC; REICH C, 1970, NEW YORK TIMES  1021; Rockefeller D., 1964, CREATIVE MANAGEMENT; Smith A., 1937, WEALTH NATIONS; Steiner G. A., 1971, BUSINESS SOC; Veblen T., 1958, THEORY BUSINESS ENTE; WHYTE W, 1957, ORGANIZATION MAN; 1972, BUSINESS WEEK   0617, P116; 1972, BUSINESS WEEK   0617, P100	25	6	6	0	2	ACAD MANAGEMENT	BRIARCLIFF MANOR	PACE UNIV, PO BOX 3020, 235 ELM RD, BRIARCLIFF MANOR, NY 10510-8020	0001-4273			ACAD MANAGE J	Acad. Manage. J.		1973	16	4					658	669		10.2307/254698				12	Business; Management	Business & Economics	R6865	WOS:A1973R686500010					2019-01-18	
J	MITCHELL, TR				MITCHELL, TR			MOTIVATION AND PARTICIPATION - INTEGRATION	ACADEMY OF MANAGEMENT JOURNAL			English	Article									UNIV WASHINGTON,SEATTLE,WA 98105							Arvey R. D., 1970, TASK PERFORMANCE FUN; ARVEY RD, 1972, ORGAN BEHAV HUM PERF, V8, P423, DOI 10.1016/0030-5073(72)90060-8; Atkinson J., 1964, INTRO MOTIVATION; BACHMAN J, 1962, THESIS U PENNSYLVANI; Bennett EB, 1955, HUM RELAT, V8, P251, DOI 10.1177/001872675500800302; Berkowitz L, 1954, HUM RELAT, V7, P509, DOI 10.1177/001872675400700405; CAMPBELL JP, 1970, MANAGERIAL BEHAVIOR; Coch L, 1948, HUM RELAT, V1, P512, DOI 10.1177/001872674800100408; DULANY DE, 1968, VERBAL BEHAVIOR GENE; EVANS MG, 1970, ORGAN BEHAV HUM PERF, V5, P277, DOI 10.1016/0030-5073(70)90021-8; Fishbein M., 1967, READINGS ATTITUDE TH; Fishbein M., 1965, CURRENT STUDIES SOCI; French John, 1950, EXPT SOCIAL PROCESS; GALBRAITH J, 1967, ORGANIZATIONAL BEHAV, V2, P327; GRAEN G, 1969, J APPLIED PSYCHOLOGY, V53; HACKMAN JR, 1968, ORGAN BEHAV HUM PERF, V3, P417, DOI 10.1016/0030-5073(68)90018-4; HENEMAN HG, 1972, PSYCHOL BULL, V78, P1, DOI 10.1037/h0033093; HOLMSTROM VL, 1972, THESIS U WASHINGTON; LAWLER EE, 1968, J APPL PSYCHOL, V52, P462, DOI 10.1037/h0026499; LAWLER EE, 1971, PAY ORGANIZATIONAL E; Lawrence LC, 1955, J APPL PSYCHOL, V39, P334, DOI 10.1037/h0045797; LEAVITT HJ, 1967, STUDIES PERSONNEL IN; Lewin K, 1935, DYNAMIC THEORY PERSO; Lewin K., 1947, READINGS SOCIAL PSYC; LOCKE EA, 1968, ORGAN BEHAV HUM PERF, V3, P157, DOI 10.1016/0030-5073(68)90004-4; MITCHELL TR, 1971, PSYCHOL BULL, V76, P432, DOI 10.1037/h0031831; MITCHELL TR, 1973, ACAD MANAGE J, V16, P41, DOI 10.2307/255041; MITCHELL TR, 1973, J SOC PSYCHOL, V89, P35, DOI 10.1080/00224545.1973.9922565; MITCHELL TR, 1973, J APPL PSYCHOL, V57, P61, DOI 10.1037/h0034181; MITCHELL TR, 1972, ORGAN BEHAV HUM PERF, V8, P1, DOI 10.1016/0030-5073(72)90033-5; MORSE NC, 1956, J ABNORM SOC PSYCH, V52, P120, DOI 10.1037/h0048893; MOTOWIDLO SJ, 1972, EFFECT GOAL SPECIFIC; NEALEY SM, 1963, IND RELAT, V3, P17, DOI 10.1111/j.1468-232X.1963.tb00806.x; PEAK H, 1955, NEBRASKA S MOTIVATIO; Porter L.W., 1968, MANAGERIAL ATTITUDES; ROSENBERG JJ, 1956, J ABNORMAL SOCIAL PS, V53, P367; Rotter J. B., 1954, SOCIAL LEARNING CLIN; Schachter S, 1951, HUM RELAT, V4, P229, DOI 10.1177/001872675100400303; Seashore S.E., 1954, GROUP COHESIVENESS I; TOLMAN EC, 1932, PURPOSIVE BEHAVIOR A; VROOM VH, 1964, WORK MOTIVATION; VROOM VH, 1960, PERSONALITY DETERMIN; Whyte W.F., 1955, MONEY MOTIVATION ANA	43	82	82	0	7	ACAD MANAGEMENT	BRIARCLIFF MANOR	PACE UNIV, PO BOX 3020, 235 ELM RD, BRIARCLIFF MANOR, NY 10510-8020	0001-4273			ACAD MANAGE J	Acad. Manage. J.		1973	16	4					670	679		10.2307/254699				10	Business; Management	Business & Economics	R6865	WOS:A1973R686500011					2019-01-18	
J	GRIMES, AJ; KLEIN, SM; SHULL, FA				GRIMES, AJ; KLEIN, SM; SHULL, FA			MATRIX MODEL - SELECTIVE EMPIRICAL TEST	ACADEMY OF MANAGEMENT JOURNAL			English	Article									UNIV KENTUCKY,COLL BUSINESS & ECON,LEXINGTON,KY 40506; UNIV GEORGIA,ATHENS,GA 30601; COUNCIL ORG ANAL,FULMER,ENGLAND							BECKER SW, 1966, ADMINISTRATIVE SCIEN, V2; BUCHANAN PC, 1967, CONCEPTS SOCIAL CHAN; DELBECQ AL, 1969, CONCEPTUAL GUIDE ORG; DUBIN R, 1965, LEADERSHIP PRODUCTIV; ENGEL GV, 1970, ADMINISTRATIVE SCIEN, V15; Fiedler F. E., 1967, THEORY LEADERSHIP EF; GOULDNER A, 1957, ADMINISTRATIVE SCIEN, V2; GRAEN G, 1970, PSYCHOLOGICAL B, V74; GRIMES AJ, 1968, PERSONNEL J, V47; HAGE J, 1969, ADMINISTRATIVE SCIEN, V14; HAYTHORNE WA, 1956, J ABNORMAL SOCIAL PS, V53; HICKSON DJ, 1969, ADMINISTRATIVE SCIEN, V14; KATZ D, 1966, SOCIAL PSYCHOLOGY; KELLY J, 1969, SCIENTIFIC MANAGEMEN; Koontz H., 1968, PRINCIPLES MANAGEMEN; LAWRENCE PR, 1969, ORGANIZATION ENVIRON; LIKERT R, 1967, HUMAN ORGANIZATION; MARROW J, 1967, MANAGEMENT PARTICIPA; MILES BM, 1964, INNOVATION EDUCATION; MOONEY JD, 1939, ONWARD INDUSTRY; NEWMAN D, 1969, ORGANIZATION ANALYSI; Parsons T., 1960, STRUCTURE PROCESS MO; PELZ DC, 1966, BEHAVIORAL SCIENCE Q, V11; PERROW CA, 1967, AM SOCIOLOGICAL REVI, V32; PUGH DS, 1968, ADMINISTRATIVE SCIEN, V13; SHULL FA, 1965, MATRIX STRUCTURE PRO; SMITH CG, ADMINISTRATIVE SCIEN, V15; STINCHCOMBE A, 1959, ADMINISTRATIVE SCIEN, V4; THOMPSON JD, 1967, ORGANIZATIONS ACTION; VROOM VH, 1960, PERSONALITY DETERMIN; WADE LL, 1967, HUMAN ORGANIZATIONS, V26; WOODWARD J, 1965, INDUSTRIAL ORGANIZAT	32	14	14	0	2	ACAD MANAGEMENT	BRIARCLIFF MANOR	PACE UNIV, PO BOX 3020, 235 ELM RD, BRIARCLIFF MANOR, NY 10510-8020	0001-4273			ACAD MANAGE J	Acad. Manage. J.		1972	15	1					9	31		10.2307/254798				23	Business; Management	Business & Economics	M1159	WOS:A1972M115900001					2019-01-18	
J	DUNCAN, WJ; ROBERTS, CD				DUNCAN, WJ; ROBERTS, CD			ANALYSIS OF CHOICE CONSISTENCY AND PERCEPTUAL UNIFORMITY IN A PARAMILITARY ORGANIZATION	ACADEMY OF MANAGEMENT JOURNAL			English	Article									SAMFORD UNIV,BIRMINGHAM,AL 35206							ADAMS SN, 1953, SOCIAL FORCES; Bales R. F, 1953, WORKING PAPERS THEOR; BAVELAS A, 1960, ADMINISTRATIVE SCIEN; BLAU PM, 1962, FORMAL ORGANIZATIONS; BORGATTA EF, 1954, AM SOCIOLOGICAL REVI; BROWNE C, 1951, J APPLIED PSYCHOLOGY; CARTER JA, 1952, MILITARY REVIEW; CARTER L, 1950, J ABNORMAL SOCIAL PS; CLIFFORD, 1964, J SOCIAL PSYCHOLOGY; Dale E., 1965, MANAGEMENT THEORY PR; DAVIS K, 1968, ACADEMY MANAGEMENT J; DOYLE WJ, 1971, ADMINISTRATIVE SCIEN; FIEDLER F, 1965, HARVARD BUSINESS REV; Fiedler F. E., 1967, THEORY LEADERSHIP EF; FILLEY AC, 1969, MANAGERIAL PROCESS O; FREILICH M, 1964, AM SOCIOLOGICAL REVI; GIBB CA, 1954, HDB SOCIAL PSYCHOLOG; GIBB CA, 1950, SOCIOMETRY; GOLDHAMMER H, 1939, AM J SOCIOLOGY; GOODE CE, 1954, PERSONNEL; GUETZKOW H, 1955, MANAGEMENT SCIENCE; HOLLANDER EP, 1958, PSYCHOLOGICAL REVIEW; HOLLANDER EP, 1969, PSYCHOLOGICAL B; HOLLANDER EP, 1961, J ABNORMAL SOCIAL PS; HOLLANDER EP, 1955, J ABNORMAL SOCIAL PS; HOLLANDER EP, 1971, ADMINISTRATIVE SCIEN; HOLLANDER EP, 1961, J ABNORMAL SOCIAL PS; HOUSE RJ, 1971, ADMINISTRATIVE SCIEN; HUNT JG, 1969, EMERGING CONCEPTS MA; HUTCHINS EB, 1960, SOCIOMETRY; JACOBS J, 1945, SOCIOMETRY; JENKINS JG, 1948, THEORY PROBLEMS SOCI; JENKINS W, 1947, PSYCHOLOGICAL B; JENNINGS HH, 1950, LEADERSHIP ISOLATION; JOHADA M, 1951, RESEARCH METHODS SOC; KERLINGER FN, 1964, FOUNDATIONS BEHAVIOR; KORMAN AH, 1966, PERSONNEL PSYCHOLOGY; LINDZEY G, 1954, HDB SOCIAL PSYCHOLOG; MCLAUGHLIN TJ, 1964, COMMUNICATION; MESCON M, 1958, ACADEMY MANAGEMENT J; MISUMI J, 1971, ADMINISTRATIVE SCIEN; Moreno J. L, 1934, WHO SHALL SURVIVE NE; NELSON PD, 1964, J SOCIAL PSYCHOLOGY; NEWSTETTER WI, 1938, GROUP ADJUSTMENT; PEPINSKY PN, 1958, J ABNORMAL SOCIAL PS; SARACHECK B, 1968, ACADEMY MANAGEMENT J; STARR MK, 1971, MANAGEMENT MODERN AP; STOGDILL R, 1948, J PSYCHOLOGY; STOGDILL R, 1949, SOCIOMETRY; Tannenbaum R., 1958, HARVARD BUSINESS REV; WHITE R, 1968, GROUP DYNAMICS; WICKESBERG AK, 1968, ACADEMY MANAGEMENT J; WOFFORD JC, 1971, ADMINISTRATIVE SCIEN	53	2	2	0	1	ACAD MANAGEMENT	BRIARCLIFF MANOR	PACE UNIV, PO BOX 3020, 235 ELM RD, BRIARCLIFF MANOR, NY 10510-8020	0001-4273			ACAD MANAGE J	Acad. Manage. J.		1972	15	1					33	47		10.2307/254799				15	Business; Management	Business & Economics	M1159	WOS:A1972M115900002					2019-01-18	
J	GEMMILL, GR; HEISLER, WJ				GEMMILL, GR; HEISLER, WJ			MACHIAVELLIANISM AS A FACTOR IN MANAGERIAL JOB STRAIN, JOB SATISFACTION, AND UPWARD MOBILITY	ACADEMY OF MANAGEMENT JOURNAL			English	Article									SYRACUSE UNIV,SYRACUSE,NY 13210							CALHOON R, 1969, ACADEMY MANAGEMENT J, V12; GUTERMAN SS, 1970, MACHIAVELLIANS; Jay Antony, 1967, MANAGEMENT MACHIAVEL; Kahn R. L., 1964, STUDIES ROLE CONFLIC; LIKERT R, 1967, HUMAN ORGANIZATION	5	29	31	1	20	ACAD MANAGEMENT	BRIARCLIFF MANOR	PACE UNIV, PO BOX 3020, 235 ELM RD, BRIARCLIFF MANOR, NY 10510-8020	0001-4273			ACAD MANAGE J	Acad. Manage. J.		1972	15	1					51	62		10.2307/254800				12	Business; Management	Business & Economics	M1159	WOS:A1972M115900003					2019-01-18	
J	MASCARENHAS, RC				MASCARENHAS, RC			CONCEPTUAL FRAMEWORK FOR UNDERSTANDING AUTONOMY FOR PUBLIC ENTERPRISES IN INDIA	ACADEMY OF MANAGEMENT JOURNAL			English	Article									INDIAN INST MANAGEMENT, CALCUTTA, INDIA							APTER DE, 1965, POLITICS MODERNIZATI; DILL WR, 1957, ADMINISTRATIVE SCIEN, V2; ELLING RH, 1961, ADMINISTRATIVE SCIEN, V6; EMERSON RM, 1962, AM SOCIOLOGICAL REVI, V27; ESMAN MJ, I BUILDING NATIONAL; EVAN WM, 1966, APPROACHES ORGANIZAT; GUETZKOW H, 1966, STUDIES BEHAVIOR ORG; KATZ, 1968, AUTONOMY ORGANIZATIO; LEVINE S, 1960, ADMINISTRATIVE SCIEN, V5; LITWAK E, 1961, ADMINISTRATIVE SCIEN, V6; MECHANIC D, 1964, NEW PERSPECTIVES ORG; PERROW C, 1961, AM J SOCIOLOGY, V66; Selznick P., 1949, TVA GRASS ROOTS; THIBAUT J, 1964, PERSPECTIVES ORGANIZ; THIBAUT JW, 1959, SOCIAL PSYCHOLOGY GR; THOMPSON JD, 1967, ORGANIZATIONS ACTION	16	3	3	0	2	ACAD MANAGEMENT	BRIARCLIFF MANOR	PACE UNIV, PO BOX 3020, 235 ELM RD, BRIARCLIFF MANOR, NY 10510-8020 USA	0001-4273	1948-0989		ACAD MANAGE J	Acad. Manage. J.		1972	15	1					65	75		10.2307/254801				11	Business; Management	Business & Economics	M1159	WOS:A1972M115900004					2019-01-18	
J	REIMNITZ, CA				REIMNITZ, CA			TESTING A PLANNING AND CONTROL MODEL IN NONPROFIT ORGANIZATIONS	ACADEMY OF MANAGEMENT JOURNAL			English	Article									UNIV NEBRASKA,LINCOLN,NB 68508							ALDERSON W, 1959, ACADEMY MANAGEMENT J, V2; KAST FE, 1970, SYSTEMS APPROACH; MILLER WB, 1963, COMPARATIVE STUDIES	3	1	1	0	2	ACAD MANAGEMENT	BRIARCLIFF MANOR	PACE UNIV, PO BOX 3020, 235 ELM RD, BRIARCLIFF MANOR, NY 10510-8020	0001-4273			ACAD MANAGE J	Acad. Manage. J.		1972	15	1					77	87		10.2307/254802				11	Business; Management	Business & Economics	M1159	WOS:A1972M115900005					2019-01-18	
J	HEROLD, DM				HEROLD, DM			LONG-RANGE PLANNING AND ORGANIZATIONAL PERFORMANCE - CROSS-VALUATIONSTUDY	ACADEMY OF MANAGEMENT JOURNAL			English	Article									CITY UNIV NEW YORK,BERNARD M BARUCH COLL,NEW YORK,NY 10010							CRONBACH, 1955, PSYCHOLOGICAL B, V52; THUNE S, 1970, BUSINESS HORIZONS	2	65	65	1	2	ACAD MANAGEMENT	BRIARCLIFF MANOR	PACE UNIV, PO BOX 3020, 235 ELM RD, BRIARCLIFF MANOR, NY 10510-8020	0001-4273			ACAD MANAGE J	Acad. Manage. J.		1972	15	1					91	102		10.2307/254803				12	Business; Management	Business & Economics	M1159	WOS:A1972M115900006					2019-01-18	
J	PETERSON, RB				PETERSON, RB			CROSS-CULTURAL PERSPECTIVE OF SUPERVISORY VALUES	ACADEMY OF MANAGEMENT JOURNAL			English	Article									NORWEGIAN SCH ECON & BUSINESS ADM,BERGEN,NORWAY							Adams T.E., 1969, WORLD JAPANESE BUSIN; DAVIS SM, 1969, HARVARD BUSINESS REV; GRANICK D, 1962, EUROPEAN EXECUTIVE; Haire M., 1966, MANAGERIAL THINKING; KOONTZ H, 1969, ACADEMY MANAGEMENT J; LAWRENCE PR, 1967, ADMINISTRATIVE SCIEN; LIPSIT S, 1967, ELITES LATIN AM; THOMAS D, 1969, MANAGEMENT TODAY; THOMPSON JD, 1959, COMPARATIVE STUDIES; WHITEHILL AM, 1968, OTHER WORKER; WOODWARD J, 1965, INDUSTRIAL ORGANIZAT, V2; YOSHINO MY, 1968, JAPAN MANAGERIAL SYS	12	4	4	0	1	ACAD MANAGEMENT	BRIARCLIFF MANOR	PACE UNIV, PO BOX 3020, 235 ELM RD, BRIARCLIFF MANOR, NY 10510-8020	0001-4273			ACAD MANAGE J	Acad. Manage. J.		1972	15	1					105	117		10.2307/254804				13	Business; Management	Business & Economics	M1159	WOS:A1972M115900007					2019-01-18	
J	NEGANDHI, AR; REIMANN, BC				NEGANDHI, AR; REIMANN, BC			CONTINGENCY THEORY OF ORGANIZATION RE-EXAMINED IN CONTEXT OF A DEVELOPING COUNTRY	ACADEMY OF MANAGEMENT JOURNAL			English	Article									KENT STATE UNIV,CTR BUSINESS & ECON RES,KENT,OH 44240; DREXEL UNIV,PHILADELPHIA,PA 19104							Burns T, 1961, MANAGEMENT INNOVATIO; Chandler Jr A. D., 1962, STRATEGY STRUCTURE C; DILL WR, 1958, ADMINISTRATIVE SCIEN, V11; FOURAKER LE, 1968, ADMINISTRATIVE SCIEN, V13; Haire M., 1966, MANAGERIAL THINKING; HARBISON F, 1959, MANAGEMENT INDUSTRIA; LAWRENCE PR, 1969, ORGANIZATION ENVIRON; LEFTON M, 1966, AM SOCIOLOGICAL REVI, V31; MEADE RD, 1967, J SOCIAL PSYCHOLOGY, V72; ROETHLISBERGER FJ, 1939, MANAGEMENT WORKER; WOODWARD J, 1970, ORGANIZATIONAL BEHAV; WRIGHT RW, 1971, ACADEMY MANAGEMENT J, V14	12	29	29	0	8	ACAD MANAGEMENT	BRIARCLIFF MANOR	PACE UNIV, PO BOX 3020, 235 ELM RD, BRIARCLIFF MANOR, NY 10510-8020	0001-4273			ACAD MANAGE J	Acad. Manage. J.		1972	15	2					137	146		10.2307/254904				10	Business; Management	Business & Economics	M9582	WOS:A1972M958200001					2019-01-18	
J	ELIASON, AL				ELIASON, AL			STUDY OF EFFECTS OF QUANTITATIVE TRAINING	ACADEMY OF MANAGEMENT JOURNAL			English	Article									UNIV OREGON,COLL BUSINESS,EUGENE,OR 97403							FERGUSON RL, 1969, MANAGEMENT SCIENCE, V15; REINFIELD NV, 1957, TOOLING PRODUCTION, V23	2	6	6	0	2	ACAD MANAGEMENT	BRIARCLIFF MANOR	PACE UNIV, PO BOX 3020, 235 ELM RD, BRIARCLIFF MANOR, NY 10510-8020	0001-4273			ACAD MANAGE J	Acad. Manage. J.		1972	15	2					147	158		10.2307/254906				12	Business; Management	Business & Economics	M9582	WOS:A1972M958200002					2019-01-18	
J	HUBER, GP; DELBECQ, A				HUBER, GP; DELBECQ, A			GUIDELINES FOR COMBINING JUDGMENTS OF INDIVIDUAL MEMBERS IN DECISION CONFERENCES	ACADEMY OF MANAGEMENT JOURNAL			English	Article									UNIV WISCONSIN,GRAD SCH BUSINESS,MADISON,WI 53706							Asch SE, 1956, PSYCHOLOGICAL MONOGR, V70; COLLAROS PA, 1969, J APPLIED PSYCHOLOGY, V53, P2; COLLINS BE, 1964, SOCIAL PSYCHOLOGY GR; DALKEY N, 1963, MANAGEMENT SCIENCE, V9; DELBECQ AL, 1971, J APPLIED BEHAVIORAL, V7; DUBOIS P, 1965, INTRO PSYCHOLOGICAL; DUNNETTE MD, 1964, PERSONNEL ADMINISTRA; ECKENRODE RT, 1965, MANAGEMENT SCIENCE, V12; FELLER W, 1962, INTRO PROBABILITY TH; Guilford J. P., 1954, PSYCHOMETRIC METHODS; GUSTAFSON DE, UNPUBLISHED; HOUSE RJ, 1969, ADMINISTRATIVE SCIEN, V14; HUBER GJ, 1967, 6704 U WISC SOC SYST; HUBER GV, 1969, BEHAVIORAL SCIENCE, V14; KELLY HH, 1954, HDB SOCIAL PSYCHOLOG; MULDER M, 1970, ORGANIZATIONAL BEHAV, V5; PETERSON CR, 1967, PSYCHOLOGICAL B, V68; SHULL FA, 1970, ORGANIZATIONAL DECIS	18	9	9	0	2	ACAD MANAGEMENT	BRIARCLIFF MANOR	PACE UNIV, PO BOX 3020, 235 ELM RD, BRIARCLIFF MANOR, NY 10510-8020	0001-4273			ACAD MANAGE J	Acad. Manage. J.		1972	15	2					161	174		10.2307/254908				14	Business; Management	Business & Economics	M9582	WOS:A1972M958200004					2019-01-18	
J	HOLLOMAN, CR; HENDRICK, HW				HOLLOMAN, CR; HENDRICK, HW			ADEQUACY OF GROUP DECISIONS AS A FUNCTION OF DECISION-MAKING PROCESS	ACADEMY OF MANAGEMENT JOURNAL			English	Article									VIRGINIA POLYTECH INST & STATE UNIV,BLACKSBURG,VA 24061; USAF ACAD,WASHINGTON,DC 20333							BARNLUND DC, 1959, J ABNORMAL SOCIAL PS, V58; HALL J, UTILIZATION GROUP RE; HOLLOMAN CR, 1970, 78 P ANN CONV AM PSY; KELLEY HH, 1954, HDB SOCIAL PSYCHOLOG, V2; LORGE I, 1962, PSYCHOMETRIKA, V20; SHAW ME, 1932, AM J PSYCHOLOGY, V44; TAYLOR DW, 1952, J EXPERIMENTAL PSYCH, V44; THORNDIKE RL, 1928, J ABNORMAL SOCIAL PS, V23; TORRANCE EP, 1955, SMALL GROUPS; TUCKMAN J, 1962, HUMAN RELATIONS, V15; WATSON GB, 1928, J ABNORMAL SOCIAL PS, V23; ZILLER RC, 1957, J APPLIED PSYCHOLOGY, V41	12	35	35	0	3	ACAD MANAGEMENT	BRIARCLIFF MANOR	PACE UNIV, PO BOX 3020, 235 ELM RD, BRIARCLIFF MANOR, NY 10510-8020	0001-4273			ACAD MANAGE J	Acad. Manage. J.		1972	15	2					175	184		10.2307/254909				10	Business; Management	Business & Economics	M9582	WOS:A1972M958200005					2019-01-18	
J	JONES, HR; JOHNSON, M				JONES, HR; JOHNSON, M			LPC AS A MODIFIER OF LEADER-FOLLOWER RELATIONSHIPS	ACADEMY OF MANAGEMENT JOURNAL			English	Article									AMER TEL & TELEGRAPH CO,NEW YORK,NY 10007							Bales R. F, 1953, WORKING PAPERS THEOR; BIERI J, 1961, FUNCTIONS VARIED EXP; BURKE W, 1964, J PERSONALITY, V33; BURNS T, 1954, HUMAN RELATIONS, V7; COATES CH, 1957, AM SOCIOLOGICAL REVI, V22; DAY RC, 1964, AM J SOCIOLOGY, V69; Fiedler F. E., 1967, THEORY LEADERSHIP EF; GIBB CA, 1969, HDB SOCIAL PSYCHOLOG, V4; GRAHAM WK, 1968, PERSONNEL PSYCHOLOGY, V21; HAYTHORN W, 1956, J ABNORMAL SOCIAL PS, V53; HILL W, 1969, ACADEMY MANAGEMENT P, V29; HOFFMAN LR, 1961, J ABNORMAL SOCIAL PS, V62; LIKERT R, 1967, HUMAN ORGANIZATION; LIPPITT R, 1968, GROUP DYNAMICS; MITCHELL TR, 1970, J PERSONALITY SOCIAL, V16; MITCHELL TR, 1970, ACADEMY MANAGEMENT J, V13; SAMPLE JA, 1965, J PERSONALITY SOCIAL, V1; Smith Patricia, MEASUREMENT SATISFAC; Tannenbaum R., 1958, HARVARD BUSINESS REV, V36; VROOM VH, 1960, PERSONNEL PSYCHOLOGY, V13	20	1	1	0	1	ACAD MANAGEMENT	BRIARCLIFF MANOR	PACE UNIV, PO BOX 3020, 235 ELM RD, BRIARCLIFF MANOR, NY 10510-8020	0001-4273			ACAD MANAGE J	Acad. Manage. J.		1972	15	2					185	196		10.2307/254910				12	Business; Management	Business & Economics	M9582	WOS:A1972M958200006					2019-01-18	
J	SLUSHER, A; VANDYKE, J; ROSE, G				SLUSHER, A; VANDYKE, J; ROSE, G			TECHNICAL COMPETENCE OF GROUP LEADERS, MANAGERIAL ROLE, AND PRODUCTIVITY IN ENGINEERING DESIGN GROUPS	ACADEMY OF MANAGEMENT JOURNAL			English	Article									UNIV IOWA,IOWA CITY,IA 52240							BARRETT RS, 1966, PERFORMANCE RATING; Blake R. R., 1964, MANAGERIAL GRID; CAMPBELL JP, 1970, MANAGERIAL BEHAVIOR; FARRIS GF, 1969, J APPLIED PSYCHOLOGY, V55; FIEDLER FE, 1965, HARVARD BUSINESS REV, V43; FLEISHMAN EA, 1955, LEADERSHIP SUPERVISI; GHISELLI EE, 1963, AM PSYCHOLOGIST, V18; GIBB C, 1969, HDB SOCIAL PSYCHOLOG; HOLLANDER EP, 1970, ADVANCES EXPERIMENTA, V5; KORMAN AK, 1966, PERSONNEL PSYCHOLOGY, V19; Likert R., 1961, NEW PATTERNS MANAGEM; LOWIN A, 1968, ORGANIZATIONAL BEHAV, V3; MANN FC, 1965, LEADERSHIP PRODUCTIV, V2; NASH AN, 1966, J APPLIED PSYCHOLOGY, V50; NASH AN, 1965, PERSONNEL PSYCHOLOGY, V18; SHAW DO, 1970, J APPLIED PSYCHOLOGY, V54; Siegel S., 1956, NONPARAMETRIC STATIS	17	6	6	0	4	ACAD MANAGEMENT	BRIARCLIFF MANOR	PACE UNIV, PO BOX 3020, 235 ELM RD, BRIARCLIFF MANOR, NY 10510-8020	0001-4273			ACAD MANAGE J	Acad. Manage. J.		1972	15	2					197	204		10.2307/254911				8	Business; Management	Business & Economics	M9582	WOS:A1972M958200007					2019-01-18	
J	GREENE, CN				GREENE, CN			RELATIONSHIPS AMONG ROLE ACCURACY, COMPLIANCE, PERFORMANCE EVALUATION, AND SATISFACTION WITHIN MANAGERIAL DYADS	ACADEMY OF MANAGEMENT JOURNAL			English	Article									INDIANA UNIV,GRAD SCH BUSINESS,BLOOMINGTON,IN 47401							Biddle Bruce J., 1966, ROLE THEORY CONCEPTS; BLAU PM, 1962, FORMAL ORGANIZATIONS; Bullock R. P., 1952, SOCIAL FACTORS RELAT; CHERRINGTON DL, 1971, J APPLIED PSYCHOLOGY, V55; COATES CH, 1957, ADMINISTRATIVE SCIEN, V1; COHEN AR, 1959, STUDIES SOCIAL POWER; DALTON M, 1951, AM J SOCIOLOGY, V57; GOODE WJ, 1960, AM J SOCIOLOGY, V66; GROSS N, 1958, EXPLORATIONS ROLE AN; HAAS JE, 1964, ROLE CONCEPTION GROU; Kahn R. L., 1964, ORGANIZATIONAL STRES; KATZ D, 1966, SOCIAL PSYCHOLOGY; LYONS TF, 1971, ORGANIZATIONAL BEHAV, V6; POWELL RM, 1969, RACE RELIGION PROMOT; RIZZO JR, 1970, ADMINISTRATIVE SCIEN, V15; STOGDILL RM, 1955, METHODS STUDY ADMINI; TAVES MJ, 1963, ROLE CONCEPTION VOCA; TOSI H, 1971, ACADEMY MANAGEMENT J, V14	18	44	45	0	5	ACAD MANAGEMENT	BRIARCLIFF MANOR	PACE UNIV, PO BOX 3020, 235 ELM RD, BRIARCLIFF MANOR, NY 10510-8020	0001-4273			ACAD MANAGE J	Acad. Manage. J.		1972	15	2					205	215		10.2307/254912				11	Business; Management	Business & Economics	M9582	WOS:A1972M958200008					2019-01-18	
J	BURACK, EH; STASZAK, FJ; PATI, GC				BURACK, EH; STASZAK, FJ; PATI, GC			ORGANIZATIONAL ANALYSIS OF MANPOWER ISSUES IN EMPLOYING DISADVANTAGED	ACADEMY OF MANAGEMENT JOURNAL			English	Article									LEWIS COLL,COLL BUSINESS ADM,LOCKPORT,IL 60441; ILLINOIS INST TECH,STUART SCH MANAGEMENT,CHICAGO,IL 60616							ACKLEY G, 1967, P REPORT S CORPORATI; ADAMS P, 1969, PERSONNEL J; BURACK EH, 1970, MSU BUSINESS TOPICS, V18; Doeringer P., 1969, PROGRAMS EMPLOY DISA; ELWART BE, 1967, P REPORT S CORPORATI; GILMER BS, 1968, BUSINESS HORIZON, V11; GOEKE JR, 1969, HARVARD BUSINESS REV, V47; HEARNS JP, 1968, 21 P ANN WINT M IND; HODGSON JD, 1968, HARVARD BUSINESS REV, V46; LITTERER JA, 1965, ANALYSIS ORGANIZATIO; MANGUM GL, 1969, EMERGENCE MANPOWER P; MARKS SB, 1968, 21 P ANN WINT M IND; MCCAULEY JS, 1969, PROGRAMS EMPLOY DISA; McFarland D. E., 1970, MANAGEMENT PRINCIPLE; MILLER A, 1967, P REPORT S CORPORATI; MOORE LW, 1969, CALIFORNIA MANAGEMEN, V11; PAGANO J, 1968, 21 P ANN WINT M IND; Piore M. J., 1969, PUBLIC PRIVATE MANPO; PURCELL TV, 1968, HARVARD BUSINESS REV, V46; RASKIN AH, 1970, HARVARD BUSINESS REV, V48; REZLER J, 1969, AUTOMATION INDUSTRIA; STETSON D, 1970, NEW YORK TIMES  0322; TAYLOR DP, 1968, INDUSTRIAL LABOR REL, V21; VETTER EW, 1964, NATIONS BUSINESS; WEIGLE LJ, 1965, DUNS REVIEW MODERN I; 1966, REPORT NATIONAL COMM; 1968, 342 STANF RES I MIN; 1969, REMEDIAL EDUCATION T, V2; 1968, WRONG WAYS FIND JOBS; 1970, NEW YORK TIMES  0111, V4; 1970, NATIONS BUSINESS	31	1	1	0	2	ACAD MANAGEMENT	BRIARCLIFF MANOR	PACE UNIV, PO BOX 3020, 235 ELM RD, BRIARCLIFF MANOR, NY 10510-8020	0001-4273			ACAD MANAGE J	Acad. Manage. J.		1972	15	3					255	271		10.2307/254852				17	Business; Management	Business & Economics	N8182	WOS:A1972N818200001					2019-01-18	
J	DUNCAN, WJ				DUNCAN, WJ			KNOWLEDGE UTILIZATION PROCESS IN MANAGEMENT AND ORGANIZATION	ACADEMY OF MANAGEMENT JOURNAL			English	Article									UNIV ALABAMA,SCH BUSINESS ADM,BIRMINGHAM,AL 35486							BARZEL Y, 1968, REVIEW ECONOMICS STA; BECKER SW, 1967, J BUSINESS U CHICAGO; BENNIS WG, 1965, J APPLIED BEHAVIORAL; BROOKS H, 1965, DAEDALUS; CHURCHMAN CW, 1965, MANAGEMENT SCIENCE; DUNCAN WJ, 1970, AACSB B; DUNCAN WJ, 1972, S J BUSINESS; DUNCAN WJ, 1971, SOCIAL SCIENCE; DUNCAN WJ, 1971, MANAGEMENT INT REVIE; GOULDNER AW, 1956, SOCIAL PROBLEMS; GUETZKOW H, 1959, ADMINISTRATIVE SCIEN; HAMILTON H, 1963, AM SOCIOLOGICAL REVI; Havelock R. G., 1969, PLANNING INNOVATION; HIGHAM TM, 1957, OCCUPATIONAL PSYCHOL; KATZ E, 1961, HUMAN ORGANIZATION; KNIGHT KE, 1967, J BUSINESS U CHICAGO; KOONTZ H, 1961, ACAD MANAGE J; MCGREGOR D, 1938, J ABNORMAL SOCIAL PS; ODIORNE GS, 1963, ACAD MANAGE J; OHMANN EA, 1957, HARVARD BUSINESS REV; Rogers E, 1962, DIFFUSION INNOVATION; SHEPARD HA, 1967, J BUSINESS U CHICAGO; SIMON JL, 1967, J BUSINESS U CHICAGO; TAYLOR FW, 1947, PRINCIPLES SCIENTIFI; URWICK L, 1963, ACAD MANAGE J; URWICK L, 1960, CALIFORNIA MANAGEMEN; WILSON J, 1961, ADMINISTRATIVE SCIEN; WILSON JQ, 1966, APPROACHES ORGANIZAT	28	14	14	2	7	ACAD MANAGEMENT	BRIARCLIFF MANOR	PACE UNIV, PO BOX 3020, 235 ELM RD, BRIARCLIFF MANOR, NY 10510-8020	0001-4273			ACAD MANAGE J	Acad. Manage. J.		1972	15	3					273	287		10.2307/254853				15	Business; Management	Business & Economics	N8182	WOS:A1972N818200002					2019-01-18	
J	LABOVITZ, GH				LABOVITZ, GH			MORE ON SUBJECTIVE EXECUTIVE APPRAISAL - EMPIRICAL STUDY	ACADEMY OF MANAGEMENT JOURNAL			English	Article									BOSTON UNIV,COLL BUSINESS ADM,BOSTON,MA 02215							FREEDMAN JL, 1970, SOCIAL PSYCHOLOGY; KAPPLE KR, 1969, ACAD MANAGE J, P298; LABOVITZ G, 1969, ACAD MANAGE J; TOWNSEND R, 1969, UP ORGANIZATION	4	2	2	0	1	ACAD MANAGEMENT	BRIARCLIFF MANOR	PACE UNIV, PO BOX 3020, 235 ELM RD, BRIARCLIFF MANOR, NY 10510-8020	0001-4273			ACAD MANAGE J	Acad. Manage. J.		1972	15	3					289	302		10.2307/254854				14	Business; Management	Business & Economics	N8182	WOS:A1972N818200003					2019-01-18	
J	DANIELS, JD; ARPAN, J				DANIELS, JD; ARPAN, J			COMPARATIVE HOME COUNTRY INFLUENCES ON MANAGEMENT PRACTICES ABROAD	ACADEMY OF MANAGEMENT JOURNAL			English	Article									GEORGIA STATE UNIV,ATLANTA,GA 30303; PENN STATE UNIV,UNIVERSITY PK,PA 16802							POWRIE TL, 1970, MULTINATIONAL CORPOR	1	6	6	0	3	ACAD MANAGEMENT	BRIARCLIFF MANOR	PACE UNIV, PO BOX 3020, 235 ELM RD, BRIARCLIFF MANOR, NY 10510-8020	0001-4273			ACAD MANAGE J	Acad. Manage. J.		1972	15	3					305	315		10.2307/254855				11	Business; Management	Business & Economics	N8182	WOS:A1972N818200004					2019-01-18	
J	PFEFFER, J				PFEFFER, J			INTERORGANIZATIONAL INFLUENCE AND MANAGERIAL ATTITUDES	ACADEMY OF MANAGEMENT JOURNAL			English	Article									UNIV ILLINOIS,URBANA,IL 61801							AHARONI Y, 1971, ISRAELI MANAGER; ARGYLE M, 1958, HUMAN RELATIONS, V11; Boulding K. E., 1953, ORGANIZATIONAL REVOL; BRAYFIELD AH, 1955, PSYCHOLOGICAL B, V52; Burns T, 1961, MANAGEMENT INNOVATIO; CORDTZ D, 1966, FORTUNE, V74; CYERT RM, 1963, BEHAVIORAL THEORY FI; DILL WR, 1958, ADMINISTRATIVE SCIEN, V2; EVAN WM, 1966, APPROACHES ORGANIZAT; GOULDNER AW, 1954, PATTERNS INDUSTRIAL; GULICK L, 1937, PAPERS SCIENCE ADMIN; KATZ D, 1966, SOCIAL PSYCHOLOGY; Katz D., 1951, PRODUCTIVITY SUPERVI; KATZELL RA, 1961, J APPLIED PSYCHOLOGY, V45; LAWRENCE PR, 1967, ORGANIZATION ENVIRON; LEVINE S, 1961, ADMINISTRATIVE SCIEN, V5; Merton Robert, 1940, SOCIAL FORCES, VXVIII; Parsons T., 1960, STRUCTURE PROCESS MO; PARSONS T, 1956, ADMINISTRATIVE SCIEN, V1; PERROW C, 1970, ORGANIZATIONAL ANALY; PUGH DS, 1969, ADMINISTRATIVE SCIEN, V14; SELZNICK P, 1948, AM SOCIOLOGICAL REVI, V13; SIMPSON RL, 1962, AM SOCIOLOGICAL REVI, V27; Taylor F. W., 1911, PRINCIPLES SCIENTIFI; THOMPSON JD, 1967, ORGANIZATIONS ACTION; THOMPSON JD, 1958, AM SOCIOLOGICAL REVI, V23; VITELES MS, 1953, MOTIVATION MORALE IN; VROOM VH, 1964, WORK MOTIVATION; WOODWARD J, 1965, INDUSTRIAL ORGANIZAT	29	40	40	2	12	ACAD MANAGEMENT	BRIARCLIFF MANOR	PACE UNIV, PO BOX 3020, 235 ELM RD, BRIARCLIFF MANOR, NY 10510-8020	0001-4273			ACAD MANAGE J	Acad. Manage. J.		1972	15	3					317	330		10.2307/254856				14	Business; Management	Business & Economics	N8182	WOS:A1972N818200005					2019-01-18	
J	BOYD, BB; JENSEN, JM				BOYD, BB; JENSEN, JM			PERCEPTIONS OF FIRST-LINE SUPERVISORS AUTHORITY - STUDY IN SUPERIOR-SUBORDINATE	ACADEMY OF MANAGEMENT JOURNAL			English	Article									UNIV WISCONSIN,SUPERVISORY INST,MADISON,WI 53706							Cochran WG, 1954, BIOMETRICS; GOLEMBLEWSKI RT, 1964, ADMINISTRATIVE SCIEN; GUETZKOW H, 1965, HDB ORGANIZATIONS; MELCHER AJ, 1967, ACAD MANAGE J; SIGBAND NB, 1966, ADVANCED MANAGEMENT; WHITEHEAD CJ, 1967, MICHIGAN STATE U BUS	6	10	10	0	1	ACAD MANAGEMENT	BRIARCLIFF MANOR	PACE UNIV, PO BOX 3020, 235 ELM RD, BRIARCLIFF MANOR, NY 10510-8020	0001-4273			ACAD MANAGE J	Acad. Manage. J.		1972	15	3					331	342		10.2307/254857				12	Business; Management	Business & Economics	N8182	WOS:A1972N818200006					2019-01-18	
J	STEAD, BA				STEAD, BA			BERLOS COMMUNICATION PROCESS MODEL AS APPLIED TO BEHAVIORAL THEORIES OF MASLOW, HERZBERG, AND MCGREGOR	ACADEMY OF MANAGEMENT JOURNAL			English	Article									UNIV HOUSTON,HOUSTON,TX 77004							Berlo DK, 1960, PROCESS COMMUNICATIO; Herzberg F., 1966, WORK NATURE MAN; Maslow A. H., 1954, MOTIVATION PERSONALI; MCGREGOR D, HUMAN SIDE ENTERPRIS; SPECKHARD WH, 1969, MODEL INTERCULTURE C	5	2	2	0	4	ACAD MANAGEMENT	BRIARCLIFF MANOR	PACE UNIV, PO BOX 3020, 235 ELM RD, BRIARCLIFF MANOR, NY 10510-8020	0001-4273			ACAD MANAGE J	Acad. Manage. J.		1972	15	3					389	393		10.2307/254868				5	Business; Management	Business & Economics	N8182	WOS:A1972N818200016					2019-01-18	
J	BERTALANFFY, LV				BERTALANFFY, LV			HISTORY AND STATUS OF GENERAL SYSTEMS THEORY	ACADEMY OF MANAGEMENT JOURNAL			English	Article									SUNY BUFFALO, CTR THEORET BIOL, BUFFALO, NY 14260 USA							Ashby W.R., 1958, INTRO CYBERNETICS; ASHBY WR, 1945, NATURE, V155, P242, DOI 10.1038/155242b0; BEIER W, 1971, UNITY THROUGH DIVERS; BEIER W, 1968, BIOPHYSIK; BERTALANFFY L, 1967, ROBOTS MEN MINDS; Bertalanffy L, 1940, NATURWISSENSCHAFTEN, V28, P521; Bertalanffy L., 1969, BEYOND REDUCTIONISM; BERTALANFFY L, 1942, THEORETISCHE BIOLOGI, V2; BERTALANFFY L. v., 1949, BIOL GEN [VIENNA], V19, P114; Bertalanffy L. V., 1968, GENERAL SYSTEM THEOR; BERTALANFFY LV, 1928, NIKOLAUS VON KUES MU; BERTALANFFY LV, 1940, ORGANIMUS PHYSIKALIS, V28, P521; BERTALANFFY LV, 1965, STUD GEN, V8, P290; BERTALANFFY LV, IN PRESS; Bertalanffy LV, 1952, PROBLEMS LIFE EVALUA; BERTALANFFY LV, 1934, MODERN THEORIES DEVE; BERTALANFFY LV, 1932, THEORETISCHE BIOLOGI, V1; Boulding KE, 1965, IMAGE; Buckley W., 1967, SOCIOLOGY MODERN SYS; BUCKLEY W, 1968, MODERN SYSTEMS RESEA; DANCONA V, 1954, STRUGGLE EXISTENCE; Demerath N. J., 1967, SYSTEM CHANGE CONFLI; DESHALIT A, 1966, SCIENCE, V153, P1063, DOI 10.1126/science.153.3740.1063; EGLER FE, 1953, ECOLOGY, V34, P443; FRANK LK, 1948, ANN NY ACAD SCI, V50, P187; GRAY W, 1971, GENERAL SYSTEMS BEHA; GRAY W, 1971, GENERAL OPEN SYSTEMS; GRAY W, 1971, UNITY THROUGH DIVERS; GRAY W, 1968, GENERAL SYSTEMS THEO; HAHN W, 1963, THEORY APPLICATION L; Harvey D., 1969, EXPLANATION GEOGRAPH; KLIR GJ, 1969, APPROACH GENERAL SYS; KOESTLER A, 1971, UNITY THROUGH DIVERS; KOESTLER A, 1971, GENERAL OPEN SYSTE 2; Koestler A., 1969, BEYOND REDUCTIONISM; KOHLER W, 1927, ROUXS ARCHIV, V112; KRAFT V, 1968, GRUNDLAGEN ERKENNTNI; Kuhn T.S., 1962, STRUCTURE SCIENTIFIC; La Salle J, 1961, STABILITY LIAPUNOVS; LASZLO E, 1971, GENERAL SYSTEMS BEHA; LASZLO E, 1971, INTRO SYSTEMS PHILOS; LOTKA AJ, 1956, ELEMENTS PHYSICAL BI; MACCIA ES, 1966, 50638 OH STAT RES F; MESAROVIC MD, 1964, VIEWS GENERAL SYSTEM; MILLER JG, 1968, GENERAL SYSTEMS THEO; NEEDHAM J, 1933, NATURE LONDON, V132; Rescigno A., 1966, DRUG TRACER KINETICS; ROSEN R, 1967, J THEOR BIOL, V15, P282, DOI 10.1016/0022-5193(67)90138-5; ROSEN R, 1971, UNITY THROUGH DIVERS; ROSEN R, 1970, DYNAMICAL SYSTEM THE, V1; SCHWARZ H, 1969, EINFUHRUNG DIE MODER; Sorokin P. A., 1966, SOCIOLOGICAL THEORIE; SOROKIN PA, 1964, CONTEMPORARY SOCIOLO; von Bertalanffy L, 1950, BRIT J PHILOS SCI, VI, P134, DOI DOI 10.1093/BJPS/I.2.134; Von Bertalanffy L., 1951, HUM BIOL, V23, P302, DOI DOI 10.2307/41448003; WEAVER W, 1948, Am Sci, V36, P536; WEISS PA, 1970, GRADUATE J, V3; Whyte L.L., 1969, HIERARCHICAL STRUCTU; WIENER N, 1948, CYBERNETICS; WILBERT H, 1970, OECOLOGIA, V5, P347, DOI 10.1007/BF00815500; WOODGER JH, 1967, BIOLOGICAL PRINCIPLE	61	35	36	1	30	ACAD MANAGEMENT	BRIARCLIFF MANOR	PACE UNIV, PO BOX 3020, 235 ELM RD, BRIARCLIFF MANOR, NY 10510-8020 USA	0001-4273	1948-0989		ACAD MANAGE J	Acad. Manage. J.		1972	15	4					407	426		10.2307/255139				20	Business; Management	Business & Economics	O8407	WOS:A1972O840700002					2019-01-18	
J	ERICSON, RF				ERICSON, RF			VISIONS OF CYBERNETIC ORGANIZATIONS	ACADEMY OF MANAGEMENT JOURNAL			English	Article									GEORGE WASHINGTON UNIV,DEPT MANAGEMENT SCI,WASHINGTON,DC 20006; GEORGE WASHINGTON UNIV,PROGRAM POLICY STUDIES SCI & TECHNOL,WASHINGTON,DC 20006							ACKOFF RL, 1971, MANAGEMENT SCIENCE; ALEXANDER T, 1971, FORTUNE; BEERS S, 1960, GENERAL SYSTEMS YEAR, V5; BOULDING K, 1956, GENERAL SYSTEMS YEAR, V1; DRUCKER P, 1969, HARVARD BUSINESS REV; MICHAEL D, 1966, AM BEHAVIORAL SCIENT; MICHAEL D, 1962, REPORT CENTER STUDY; MORTON J, BELL TELEPHONE J; SCHON D, 1966, INT SCIENCE TECHNOLO; SIMON HA, 1960, NEW SCIENCE MANAGEME; THOMPSON JW, 1962, GENERAL SYSTEMS YEAR, V7; Toffler Alvin, 1971, FUTURE SHOCK; WAYS M, 1964, FORTUNE; 1958, OPERATIONS RESEARCH; 1965, SCIENCE; 1967, WEBSTERS UNABRIDGED; 1972, CHRISTIAN SCIEN 0417; 1972, CHRISTIAN SCIEN 0316	18	3	3	0	1	ACAD MANAGEMENT	BRIARCLIFF MANOR	PACE UNIV, PO BOX 3020, 235 ELM RD, BRIARCLIFF MANOR, NY 10510-8020	0001-4273			ACAD MANAGE J	Acad. Manage. J.		1972	15	4					427	443		10.2307/255140				17	Business; Management	Business & Economics	O8407	WOS:A1972O840700003					2019-01-18	
J	KAST, FE; ROSENZWE.JE				KAST, FE; ROSENZWE.JE			GENERAL SYSTEMS THEORY - APPLICATIONS FOR ORGANIZATION AND MANAGEMENT	ACADEMY OF MANAGEMENT JOURNAL			English	Article									UNIV WASHINGTON,GRAD SCH BUSINESS ADM,SEATTLE,WA 98105							ACKOFF RL, 1971, MANAGEMENT SCIENCE; BACK KW, 1971, AM SOCIOLOGICAL REVI; BARNARD C., 1938, FUNCTIONS EXECUTIVE; BERRIEN FK, 1968, GENERAL SOCIAL SYSTE; BLAU PM, 1965, INDUSTRIAL LABOR REL; BOULDING K, 1956, MANAGEMENT SCIENCE; BUCKLEY W, 1968, MODERN SYSTEMS RESEA; Burns T, 1961, MANAGEMENT INNOVATIO; CHAMBERLAIN NW, 1968, ENTERPRISE ENVIRONME; Churchman CW, 1968, SYSTEMS APPROACH; DEGREENE KB, 1970, SYSTEMS PSYCHOLOGY; DEUTSCH KW, 1968, MODERN SYSTEMS RESEA; EASTON D, 1965, SYSTEMS ANALYSIS POL; EMERY FE, 1960, MANAGEMENT SCIENCES; EMSHOFF JR, 1971, ANALYSIS BEHAVIORAL; GROSS BM, 1967, HUMAN RELATIONS; HALL AD, 1956, YEARBOOK SOCIETY ADV, V1; KAST FE, 1970, ORGANIZATION MANAGEM; KATZ D, 1966, SOCIAL PSYCHOLOGY; Kuhn T.S., 1962, STRUCTURE SCIENTIFIC; LITTERER JA, 1969, ORGANIZATIONS SYSTEM, V2; LITTERER JA, 1969, ORGANIZATIONS STRUCT, V1; LORSCH J, 1970, STUDIES ORGANIZATION; MILLER EJ, 1967, SYSTEMS ORGANIZATION; MILLER JG, 1965, BEHAVIORAL SCIENCE; MILLER RF, 1971, ADMINISTRATIVE SCIEN; MURRAY HA, 1959, PSYCHOLOGY STUDY SCI, V3; Parsons Talcott, 1951, SOCIAL SYSTEM; PHILLIPS DC, 1971, MANAGEMENT SYSTEMS; RAPOPORT A, 1968, MODERN SYSTEMS RESEA; RICE AK, 1970, MODERN UNIVERSITY; SCHEIN EH, 1970, ORGANIZATIONAL PSYCH; SCOTT WG, 1961, ACADEMY MANAGEMENT J; SILVERMAN D, 1971, THEORY ORGANIZATIONS; SIMON HA, 1969, ORGANIZATIONS SYSTEM, V2; SPRINGER M, 1970, ANNALS AM ACADEMY PO; TERREBERRY S, 1968, ADMINISTRATIVE SCIEN; THOMPSON JD, 1967, ORGANIZATIONS ACTION; VONBERTALANFFY L, 1950, SCIENCE; VONBERTALANFFY L, 1968, GENERAL SYSTEM THEOR; YUCHTMAN E, 1967, AM SOCIOLOGICAL REVI	41	132	135	1	34	ACAD MANAGEMENT	BRIARCLIFF MANOR	PACE UNIV, PO BOX 3020, 235 ELM RD, BRIARCLIFF MANOR, NY 10510-8020	0001-4273			ACAD MANAGE J	Acad. Manage. J.		1972	15	4					447	465		10.2307/255141				19	Business; Management	Business & Economics	O8407	WOS:A1972O840700004					2019-01-18	
J	PHILLIPS, DC				PHILLIPS, DC			METHODOLOGICAL BASIS OF SYSTEMS THEORY	ACADEMY OF MANAGEMENT JOURNAL			English	Article									MONASH UNIV,CLAYTON,AUSTRALIA							ANGYAL A, 1962, SYSTEMS THINKING; DEWEY J, 1946, J PHILOSOPHY, V43; DEWEY J, 1884, ANDOVER REVIEW, V2; Dewey John, 1917, CREATIVE INTELLIGENC; HOSPERS J, 1967, INTRO PHILOSOPHICAL; James W, 1884, MIND, V9; NAGEL E, 1960, STRUCTURE SCIENTIFIC; PHILLIPS DC, 1970, J HISTORY IDEAS, V31; PHILLIPS DC, 1971, MELBOURNE STUDIES ED; PHILLIPS DC, 1971, MANAGEMENT SYSTEMS, V5; RUSSELL B, 1948, HISTORY WESTERN PHIL; VONBERTALANFFY L, 1962, MODERN THEORIES DEVE; VONBERTALANFFY L, 1969, GENERAL SYSTEM THEOR; VONBERTALANFFY L, 1960, PROBLEMS LIFE	14	11	11	0	4	ACAD MANAGEMENT	BRIARCLIFF MANOR	PACE UNIV, PO BOX 3020, 235 ELM RD, BRIARCLIFF MANOR, NY 10510-8020	0001-4273			ACAD MANAGE J	Acad. Manage. J.		1972	15	4					469	477		10.2307/255142				9	Business; Management	Business & Economics	O8407	WOS:A1972O840700005					2019-01-18	
J	THAYER, F				THAYER, F			GENERAL SYSTEM(S) THEORY - PROMISE THAT COULD NOT BE KEPT	ACADEMY OF MANAGEMENT JOURNAL			English	Article									UNIV PITTSBURGH,GRAD SCH PUBL & INT AFFAIRS,PITTSBURGH,PA 15213							[Anonymous], 1972, ECOLOGIST; Burton John W., 1968, SYSTEMS STATES DIPLO; DEUTSCH KW, 1963, NERVES GOVERNMENT; FOLLETT MP, 1926, NEW STATE GROUP ORGA; Laszlo E., 1972, SYSTEMS VIEW WORLD; MORGENTHAU HJ, 1956, POLITICS AMONG NATIO; Olson M., 1968, LOGIC COLLECTIVE ACT; Russell B., 1938, POWER NEW SOCIAL ANA; SCOTT WG, 1972, ORGANIZATION THEORY; STILLMAN E, 1952, AM END POSTWAR WORLD; THOMPSON KW, 1955, AM POLITICAL SCIENCE, V49; VONBERTALANFFY L, 1962, GENERAL SYSTEM THEOR; WOLIN SS, 1960, POLITICS VISION CONT, pCH10; 1972, PARADE, pCH1; 1972, TIMES NY        0209; 1972, TIMES NY        0330	16	7	7	1	4	ACAD MANAGEMENT	BRIARCLIFF MANOR	PACE UNIV, PO BOX 3020, 235 ELM RD, BRIARCLIFF MANOR, NY 10510-8020	0001-4273			ACAD MANAGE J	Acad. Manage. J.		1972	15	4					481	493		10.2307/255143				13	Business; Management	Business & Economics	O8407	WOS:A1972O840700006					2019-01-18	
J	PEERY, NS				PEERY, NS			GENERAL SYSTEMS THEORY - INQUIRY INTO ITS SOCIAL PHILOSOPHY	ACADEMY OF MANAGEMENT JOURNAL			English	Article									SIMON FRASER UNIV,DEPT ECON & COMMERCE,VANCOUVER,BRITISH COLUMBI,CANADA							ARGYRIS C, 1957, PERSONALITY ORGANIZA; Ashby W. R, 1963, INTRO CYBERNETICS; BEER S, 1959, CYBERNETICS MANAGEME; BENNIS WG, 1966, CHANGING ORGANIZATIO; Blau P. M., 1967, EXCHANGE POWER SOCIA; BRZEZINSKI Z, 1970, BETWEEN TWO AGES AM; BUCKLEY W, 1968, MODERN SYSTEMS RESEA; Churchman C., 1971, DESIGN INQUIRING SYS; Churchman CW, 1968, SYSTEMS APPROACH; CLELAND DI, 1972, MANAGEMENT SYSTEMS A; CONNOR PE, 1972, ACADEMY MANAGEMENT J, V15, P2; CYERT RM, 1963, BEHAVIORAL THEORY FI; Dahrendorf R, 1959, CLASS CLASS CONFLICT; DAVIS K, 1959, AM SOCIOLOGICAL REVI, V24; DEMERAT NJ, 1967, SYSTEM CHANGE CONFLI; DEMERETH NJ, 1967, SYSTEM CHANGE CONFLI; EASTON D, 1969, FRAMEWORK POLITICAL; ERICSON RE, 1970, ACAD MANAGE J, V13, P1; Forrester JW, 1972, WORLD DYNAMICS; HOROWITZ LI, 1962, SOCIAL FORCES, V41; HOROWITZ LI, 1968, PROFESSING SOCIOLOGY; HORTON J, 1966, AM J SOCIOLOGY, V71, P6; Kaplan A., 1964, CONDUCT INQUIRY; KAST FE, 1970, ORGANIZATION MANAGEM; KATZ D, 1966, SOCIAL PSYCHOLOGY; KLIR GJ, 1972, TRENDS GENERAL SYSTE; KLIR GJ, 1969, APPROACH GENERAL SYS; LEAVITT HJ, 1965, HDB ORGANIZATIONS; LIKERT R, 1967, HUMAN ORGANIZATION; LITTERER JA, 1969, ORGANIZATIONS SYSTEM, V2; Martindale D., 1960, NATURE TYPES SOCIOLO; MASLOW AH, 1962, TOWARD PSYCHOLOGY BE; MCGREGOR D, 1962, HUMAN SIDE ENTERPRIS; MILLER JG, 1965, BEHAVIORAL SCIENCE, V10; MILLER JG, 1955, AM PSYCHOLOGIST, V10; MILSUM JH, 1972, TRENDS GENERAL SYSTE; ORCHARD RA, 1972, TRENDS GENERAL SYSTE; PHILLIPS DC, 1971, MANAGEMENT SYSTEMS; PHILLIPS DC, 1972, ACADEMY MANAGEMENT J, V15, P4; Popper K., 1962, CONJECTURES REFUTATI; ROSE J, 1970, PROGRESS CYBERNETICS, V1; RUBIN MD, 1971, MAN SYSTEMS; SCOTT WG, 1972, ORGANIZATION THEORY; SCOTT WG, 1968, ACADEMY MANAGEMENT J, V11, P3; SEILER JA, 1967, SYSTEMS ANALYSIS ORG; SIMON HA, 1957, ADMINISTRATIVE BEHAV; THOMPSON JD, 1967, ORGANIZATIONS ACTION; VANDENBERGHE P, 1963, AM SOCIOLOGICAL REVI, V28; VONBERTALANFFY L, 1962, GENERAL SYSTEMS YEAR, V7; VONBERTALANFFY L, 1959, GENERAL SYSTEMS YEAR, V4; VONBERTALANFFY L, 1968, GENERAL SYSTEM THEOR; Whyte L.L., 1969, HIERARCHICAL STRUCTU	52	9	9	0	4	ACAD MANAGEMENT	BRIARCLIFF MANOR	PACE UNIV, PO BOX 3020, 235 ELM RD, BRIARCLIFF MANOR, NY 10510-8020	0001-4273			ACAD MANAGE J	Acad. Manage. J.		1972	15	4					495	510		10.2307/255144				16	Business; Management	Business & Economics	O8407	WOS:A1972O840700007					2019-01-18	
J	TOSI, H				TOSI, H			ORGANIZATION STRESS AS A MODERATOR OF RELATIONSHIP BETWEEN INFLUENCE AND ROLE RESPONSE	ACADEMY OF MANAGEMENT JOURNAL			English	Article									MICHIGAN STATE UNIV,DEPT MANAGEMENT,E LANSING,MI 48823							Argyris C., 1964, INTEGRATING INDIVIDU; BLAU PM, 1962, FORMAL ORGANIZATIONS; Coch L, 1948, HUMAN RELATIONS, V1; COHEN AR, 1959, STUDIES SOCIAL POWER; COSTELLO TW, 1963, PSYCHOLOGY ADMINISTR; Kahn R. L., 1964, ORGANIZATIONAL STRES; LYKKEN D, 1968, PSYCHOLOGICAL B, V70; May R., 1950, MEANING ANXIETY; MORSE N, 1956, J ABNORMAL SOCIAL PS, V52; RIZZO J, UNPUBLISHED PAPER; SMITH EE, 1957, J ABNORMAL SOCIAL PS, V55; TAVES MJ, 1963, ROLE CONCEPTION VOCA; Vroom V., 1963, SOME PERSONALITY DET	13	75	75	0	2	ACAD MANAGEMENT	BRIARCLIFF MANOR	PACE UNIV, PO BOX 3020, 235 ELM RD, BRIARCLIFF MANOR, NY 10510-8020	0001-4273			ACAD MANAGE J	Acad. Manage. J.		1971	14	1					7	20		10.2307/254707				14	Business; Management	Business & Economics	I9597	WOS:A1971I959700001					2019-01-18	
J	SHEPARD, JM				SHEPARD, JM			CAREY,A RADICAL CRITICISM OF HAWTHORNE STUDIES	ACADEMY OF MANAGEMENT JOURNAL			English	Article									UNIV KENTUCKY,LEXINGTON,KY 40506							CAREY A, 1967, AM SOCIOLOGICAL REV, V32; LIEBOW E, 1967, TALLEYS CORNER; ROETHLISBERGER FJ, 1939, MANAGEMENT WORKER; SYKES AJM, 1965, HUMAN RELATIONS, V18; WHITEHEAD TN, 1938, INDUSTRIAL WORKER; Whyte W-F, 1943, STREET CORNER SOC	6	5	5	2	4	ACAD MANAGEMENT	BRIARCLIFF MANOR	PACE UNIV, PO BOX 3020, 235 ELM RD, BRIARCLIFF MANOR, NY 10510-8020	0001-4273			ACAD MANAGE J	Acad. Manage. J.		1971	14	1					23	32		10.2307/254708				10	Business; Management	Business & Economics	I9597	WOS:A1971I959700002					2019-01-18	
J	LITSCHERT, RJ				LITSCHERT, RJ			STRUCTURE OF LONG-RANGE PLANNING GROUPS	ACADEMY OF MANAGEMENT JOURNAL			English	Article									VIRGINIA POLYTECH INST & STATE UNIV, BLACKSBURG, VA 22901 USA							Burns T, 1961, MANAGEMENT INNOVATIO; GALBRAITH JR, 1968, ACADEMY MANAGEME DEC; HARVEY E, 1968, AM SOCIOLOGICAL REV, V33; HICKSON DJ, 1969, ADMINISTRATIVE SCIEN, V14; LAWRENCE PR, 1967, ORGANIZATION ENVIRON; WOODWARD J, 1967, INDUSTRIAL ORGANIZAT; WRAPP E, 1957, HARVARD BUSINESS REV, V35	7	8	8	0	1	ACAD MANAGEMENT	BRIARCLIFF MANOR	PACE UNIV, PO BOX 3020, 235 ELM RD, BRIARCLIFF MANOR, NY 10510-8020 USA	0001-4273	1948-0989		ACAD MANAGE J	Acad. Manage. J.		1971	14	1					33	43		10.2307/254709				11	Business; Management	Business & Economics	I9597	WOS:A1971I959700003					2019-01-18	
J	ESTAFEN, BD				ESTAFEN, BD			METHODS FOR MANAGEMENT RESEARCH IN 1970S - ECOLOGICAL SYSTEMS APPROACH	ACADEMY OF MANAGEMENT JOURNAL			English	Article									INDIANA UNIV,BLOOMINGTON,IN 47401							BROWN WB, 1966, ACAD MANAGE J, V9, P318, DOI 10.2307/254950; DILL WR, 1958, ADMIN SCI QUART, V2, P409, DOI 10.2307/2390794; ESTAFEN BD, 1970, MANAGE INT REV, V10, P21; ESTAFEN BD, 1970, 29 P ANN M AC MAN SE, P161; ESTAFEN BD, 1970, EUROPEAN BUSINES SUM, P30; EVAN WM, 1966, APPROACHES ORGANIZAT; FARMER R, 1966, INT BUSINESS OPERATI; FARMER RN, 1965, COMPARATIVE MANAGEME, pCH5; FARMER RN, 1964, CALIFORNIA MANAGEMEN, V7, P58; FARMER RN, 1965, COMPARATIVE MANAGEME; Forrester J. W., 1961, INDUSTRIAL DYNAMICS; GORDON PJ, 1965, ACAD MANAGE J, V8, P259; GOULDNER AW, 1957, AM SOCIOLOGICAL REV, V32, P98; KAST FE, 1970, ORGANIZATION MANAGEM; KOONTZ H, 1969, ACAD MANAGE J, V12, P415, DOI 10.2307/254730; Lawrance P. R., 1967, ADM SCI Q, P1; LITWAK E, 1962, ADMIN SCI QUART, V6, P395, DOI 10.2307/2390723; NATH R, 1970, COMPARATIVE MANAGEME; Negandhi A.R., 1965, ACAD MANAGE J, V8, P319; PETIT TA, 1967, ACAD MANAGE J, V10, P348; SAYLES L, 1970, BUSINESS HORIZON APR, P25; SCHOLLHAMMER H, 1969, ACAD MANAGE J, V12, P81, DOI 10.2307/254675; SELLITZ C, 1966, RESEARCH METHODS SOC; SUMMER CE, 1964, MANAGERIAL MIND; THORELLI HB, 1968, 27 P ANN M AC MAN SE, P66; WOLF WB, 1968, COMPARATIVE ADMINIST; WREN DA, 1967, ACADEMY MANAGEME MAR, P69; YOUNG S, 1968, CALIF MANAGE REV, V10, P21, DOI 10.2307/41164114	28	4	4	1	3	ACAD MANAGEMENT	BRIARCLIFF MANOR	PACE UNIV, PO BOX 3020, 235 ELM RD, BRIARCLIFF MANOR, NY 10510-8020	0001-4273			ACAD MANAGE J	Acad. Manage. J.		1971	14	1					51	64		10.2307/254710				14	Business; Management	Business & Economics	I9597	WOS:A1971I959700004					2019-01-18	
J	WRIGHT, RW				WRIGHT, RW			ORGANIZATIONAL AMBIENTE - MANAGEMENT AND ENVIRONMENT IN CHILE	ACADEMY OF MANAGEMENT JOURNAL			English	Article									MCGILL UNIV,MONTREAL,QUEBEC,CANADA							ESTAFEN BD, 1967, THESIS U CALIFORNIA; GONZALES RF, 1961, ACADEMY MANAGEME APR; OBERG W, 1963, ACADEMY MANAGEME JUN	3	3	3	0	3	ACAD MANAGEMENT	BRIARCLIFF MANOR	PACE UNIV, PO BOX 3020, 235 ELM RD, BRIARCLIFF MANOR, NY 10510-8020	0001-4273			ACAD MANAGE J	Acad. Manage. J.		1971	14	1					65	74		10.2307/254711				10	Business; Management	Business & Economics	I9597	WOS:A1971I959700005					2019-01-18	
J	UTTERBACK, JM				UTTERBACK, JM			PROCESS OF TECHNOLOGICAL INNOVATION WITHIN FIRM	ACADEMY OF MANAGEMENT JOURNAL			English	Article									INDIANA UNIV, GRAD SCH BUSINESS, BLOOMINGTON, IN 47401 USA							ALLEN TJ, 1967, ANNUAL REV INFORMATI, V4; ALLEN TJ, 1966, THESIS MIT; BAKER NR, 1967, IEEE T ENGINEERING M, VEM14; COLEMAN JS, 1966, MEDICAL INNOVATION D; DOCTORS S, 1969, ROLE FEDERAL AGENCIE; Enos J. L., 1962, RATE DIRECTION INVEN; ESTAFEN BD, 1970, MANAGE INT REV, V10, P21; GALBRAITH JR, 1970, STUDIES ORGANIZATION; GORDON G, 1968, P ACADEMY MANAGEMENT; HAMBERG D, 1963, J POLITICAL ECONOMY, V71; Jewkes J., 1958, SOURCES INVENTION; LAWRENCE PR, 1967, ORGANIZATION ENVIRON; LYNN F, 1966, REPORT NATIONAL COMM; MANSFIELD E, 1968, INDUSTRIAL RESEARCH; MARQUIS DG, 1969, INNOVATION, V1; MUELLER WF, 1962, RATE DIRECTION INVEN; MYERS S, 1969, SUCCESSFUL INDUSTRIA; PECK MJ, 1962, RATE DIRECTION INVEN; PETERS DH, 1969, 40669 MIT SLOAN SCH; Rogers E, 1962, DIFFUSION INNOVATION; RUBENSTEIN AH, 1969, IEEE T ENGINEERING M, VEM16; Schmookler J., 1966, INVENTION ECONOMIC G; SCHON DA, 1967, TECHNOLOGY CHANGE; *US DEP COMM, 1967, TECHNOLOGICAL INNOVA; UTTERBACK JM, 1969, THESIS MIT	25	191	204	1	22	ACAD MANAGEMENT	BRIARCLIFF MANOR	PACE UNIV, PO BOX 3020, 235 ELM RD, BRIARCLIFF MANOR, NY 10510-8020 USA	0001-4273	1948-0989		ACAD MANAGE J	Acad. Manage. J.		1971	14	1					75	88		10.2307/254712				14	Business; Management	Business & Economics	I9597	WOS:A1971I959700006					2019-01-18	
J	SLOCUM, JW				SLOCUM, JW			COMPARATIVE STUDY OF SATISFACTION OF AMERICAN AND MEXICAN OPERATIVES	ACADEMY OF MANAGEMENT JOURNAL			English	Article									PENN STATE UNIV,DEPT MANAGEMENT SCI & ORG BEHAV,UNIVERSITY PK,PA 16802							AJIFERUKE M, 1970, ACADEMY MANAGEMENT J, V13; CAMPBELL JP, 1970, MANAGERIAL BEHAVIOR; FAUNCE W, 1966, AM SOCIOLOGICAL REV, V31; FAYERWEATHER J, 1959, EXECUTIVE OVERSEAS; GONZALEZ R, 1961, J ACADEMY MANAGEMENT, V4; HAIRE M, 1965, MANAGERIAL THINKING; Herzberg F., 1957, JOB ATTITUDES REV RE; HULIN CL, 1968, J APPLIED PSYCHOLOGY, V52; HUNT J, 1969, HUMAN ORGANIZATION, V28; IVANCEVICH JM, 1969, J APPLIED PSYCHOLOGY, V53; IVANCEVICH JM, 1969, MSU BUSINESS TOPICS, V17; IVANCEVICH JM, 1970, ACADEMY MANAGEMENT J, V13; LAHIRI DK, 1967, J APPLIED PSYCHOLOGY, V31; LAUTERBACH A, 1965, BUSINESS HISTORY REV, V39; LAWLER EE, 1967, INDUSTRIAL RELATIONS, V8; MCCANN E, 1964, ACADEMY MANAGEMENT J, V7; MCCANN E, 1970, MSU BUSINESS TOPICS, V18; OBERG W, 1963, ACADEMY MANAGEMENT J, V6; PETERSON R, 1969, 21 U WASH SCH BUS AD; Porter L.W., 1968, MANAGERIAL ATTITUDES; PORTER LW, 1961, J APPLIED PSYCHOLOGY, V45; PORTER LW, 1965, PSYCHOLOGICAL B, V64; Ramos Samuel, 1962, PROFILE MAN CULTURE; SCHWAB D, 1970, INDUSTRIAL RELATIONS, V9; SINGH P, 1963, PERSONNEL PSYCHOLOGY, V16; SJOBERG G, 1964, HDB MODERN SOCIOLOGY; TOPICHAK P, 1970, THESIS PENNSYLVANIA; WILLIAMS LK, 1966, INDUSTRIAL RELATIONS, V5; Williams R. M., 1965, AM SOC SOCIOLOGICAL; WOODS FJ, 1956, CULTURAL VALUES AM E	30	21	22	0	1	ACAD MANAGEMENT	BRIARCLIFF MANOR	PACE UNIV, PO BOX 3020, 235 ELM RD, BRIARCLIFF MANOR, NY 10510-8020	0001-4273			ACAD MANAGE J	Acad. Manage. J.		1971	14	1					89	97		10.2307/254713				9	Business; Management	Business & Economics	I9597	WOS:A1971I959700007					2019-01-18	
J	NARVER, JC				NARVER, JC			RATIONAL MANAGEMENT RESPONSES TO EXTERNAL EFFECTS	ACADEMY OF MANAGEMENT JOURNAL			English	Article									UNIV WASHINGTON,GRAD SCH BUSINESS ADM,SEATTLE,WA 98105							BROWN TP, 1970, WALL STREET J   1110; ELMAN P, 1970, OCT NAT ASS MAN MARK; Friedman M, 1962, CAPITALISM FREEDOM; FRIEDMAN M, 1967, CONTROLLING POLLUTIO; JOHNSON O, 1966, J BUSINESS, V39, P496; Katona G., 1964, MASS CONSUMPTION SOC; MILLS E, 1967, CONTROLLING POLLUTIO; REICH CA, 1970, NEW YORKER      0926; SCHORR B, 1970, WALL STREET J   1026; TOUHILL CJ, 1970, JUN NW REG M AM CHEM; 1970, SEATTLE POST IN 1108; 1970, BUSINESS WEEK   0411; 1970, PAPER TIMES      JUN; 1970, BUSINESS WEEK   0704; 1970, BUSINESS WEEK   1010; 1970, FORTUNE          FEB; 1970, BUSINESS WEEK   0620	17	18	18	0	1	ACAD MANAGEMENT	BRIARCLIFF MANOR	PACE UNIV, PO BOX 3020, 235 ELM RD, BRIARCLIFF MANOR, NY 10510-8020	0001-4273			ACAD MANAGE J	Acad. Manage. J.		1971	14	1					99	115		10.2307/254714				17	Business; Management	Business & Economics	I9597	WOS:A1971I959700008					2019-01-18	
J	STRONG, DF				STRONG, DF			FUTURE SHOCK - REVIEW ARTICLE	ACADEMY OF MANAGEMENT JOURNAL			English	Article									UNIV WASHINGTON,SEATTLE,WA 98105								0	0	0	0	2	ACAD MANAGEMENT	BRIARCLIFF MANOR	PACE UNIV, PO BOX 3020, 235 ELM RD, BRIARCLIFF MANOR, NY 10510-8020	0001-4273			ACAD MANAGE J	Acad. Manage. J.		1971	14	1					133	135		10.2307/254716				3	Business; Management	Business & Economics	I9597	WOS:A1971I959700010					2019-01-18	
J	POWELL, RM; SCHLACTE.JL				POWELL, RM; SCHLACTE.JL			PARTICIPATIVE MANAGEMENT - PANACEA	ACADEMY OF MANAGEMENT JOURNAL			English	Article									ARIZONA STATE UNIV,TEMPE,AZ 85281; OHIO STATE UNIV,DIV RES,COLUMBUS,OH 43210							ALLPORT GW, 1945, PSYCHOLOGICAL REV, V53; CAREY HH, 1937, NATIONS BUSINESS, V25; Coch L, 1948, HUMAN RELATIONS, V1; DALTON GW, 1968, DISTRIBUTION AUTHORI; FRIEDLANDER F, 1966, J APPLIED PSYCHO APR; GRAHAM GH, 1969, COLLEGIATE NEWS VIEW, V22; HAIRE M, 1964, PSYCHOLOGY MANAGEMEN; LAWRENCE PR, 1956, HUMAN RELATIONS MANA; LEWIN A, 1968, ORGANIZATIONAL BEHAV, V3; MAIER NRF, 1965, PSYCHOLOGY INDUSTRY; MANN FC, 1963, PSYCHOLOGY ADMINISTR; Marrow Alfred J., 1967, MANAGEMENT PARTICIPA; STOGDILL RM, 1969, SEP ANN M AM PSYCH; VROOM VH, 1960, PERSONALITY DETERMIN	14	6	6	0	3	ACAD MANAGEMENT	BRIARCLIFF MANOR	PACE UNIV, PO BOX 3020, 235 ELM RD, BRIARCLIFF MANOR, NY 10510-8020	0001-4273			ACAD MANAGE J	Acad. Manage. J.		1971	14	2					165	173		10.2307/255304				9	Business; Management	Business & Economics	J7336	WOS:A1971J733600001					2019-01-18	
J	ADAM, EE; SCOTT, WE				ADAM, EE; SCOTT, WE			APPLICATION OF BEHAVIORAL CONDITIONING PROCEDURES TO PROBLEMS OF QUALITY CONTROL	ACADEMY OF MANAGEMENT JOURNAL			English	Article									UNIV MISSOURI,COLUMBIA,MO 65202; INDIANA UNIV,BLOOMINGTON,IN 47401							ADAM EE, 1970, THESIS INDIANA U; ADAMS CF, 1969, INDUSTRIAL MANAGEMEN, V11; AMSEL A, 1962, PSYCHOLOGICAL REV, V69; BANDURA A, 1969, PRINCIPLES BEHAVIOR; BROOM L, 1968, SOCIOLOGY TEST ADAPT; CUMMINGS LL, 1969, READINGS ORGANIZATIO; DODGE HF, 1944, SAMPLING INSPECTION; FITTS PM, 1969, J EXPTL PSYCHOLOGY, V71; HILL WF, 1968, PSYCHOLOGICAL B, V69; HONIG WK, 1966, OPERANT BEHAVIOR ARE; KIMBLE GA, 1961, HILGARD MARQUIS COND; LEITENBERG H, 1965, PSYCHOLOGICAL B, V64; REESE EP, 1966, ANALYSIS HUMAN OPERA; RUCH WA, 1968, THESIS INDIANA U; SHEIN JB, 1968, THESIS INDIANA U; SHEWHART WA, 1931, ECONOMIC CONTROL QUA; SKINNER BF, 1966, OPERANT BEHAVIOR ARE	17	13	13	0	3	ACAD MANAGEMENT	BRIARCLIFF MANOR	PACE UNIV, PO BOX 3020, 235 ELM RD, BRIARCLIFF MANOR, NY 10510-8020	0001-4273			ACAD MANAGE J	Acad. Manage. J.		1971	14	2					175	193		10.2307/255305				19	Business; Management	Business & Economics	J7336	WOS:A1971J733600002					2019-01-18	
J	LIPPERT, FG				LIPPERT, FG			TOWARD FLEXIBILITY IN APPLICATION OF BEHAVIORAL SCIENCE RESEARCH	ACADEMY OF MANAGEMENT JOURNAL			English	Article									UNIV CONNECTICUT,SCH BUSINESS ADM,STAMFORD,CT 06903							Baritz L., 1960, SERVANTS POWER; BRAYFIELD A, 1955, PSYCHOLOGICAL B, V5, P415; BURNS G, 1962, MANAGEMENT INNOVATIO, pCH7; Coch L, 1948, HUM RELAT, V1, P512, DOI 10.1177/001872674800100408; ETZIONI A, 1964, MODERN ORGANIZATIONS; FRENCH JRP, 1960, HUMAN RELATIONS, V13; GOULDNER A, 1953, WILDCAT STRIKE; Herzberg F., 1966, WORK NATURE MAN; HYMAN I, 1954, STUDIES SCOPE METHOD; Katz D., 1951, PRODUCTIVITY SUPERVI; Katz D., 1950, PRODUCTIVITY SUPERVI; Lewin K., 1951, FIELD THEORY SOCIAL; Lewin K, 1939, J SOC PSYCHOL, V10, P271; LIPPERT F, 1970, NEW DIMENSIONS ORGAN; Marrow Alfred J., 1967, MANAGEMENT PARTICIPA; MORSE NC, 1956, J ABNORM SOC PSYCH, V52, P120, DOI 10.1037/h0048893; TOSI H, 1970, PERS PSYCHOL, V23, P91, DOI 10.1111/j.1744-6570.1970.tb01638.x; VROOM VH, 1960, PERSONALITY DETERMIN; WOODWARD J, 1966, ORGANIZATION THEORY	19	2	2	0	1	ACAD MANAGEMENT	BRIARCLIFF MANOR	PACE UNIV, PO BOX 3020, 235 ELM RD, BRIARCLIFF MANOR, NY 10510-8020	0001-4273			ACAD MANAGE J	Acad. Manage. J.		1971	14	2					195	201		10.2307/255306				7	Business; Management	Business & Economics	J7336	WOS:A1971J733600003					2019-01-18	
J	VANDEVEN, A; DELBECQ, AL				VANDEVEN, A; DELBECQ, AL			NOMINAL VERSUS INTERACTING GROUP PROCESSES FOR COMMITTEE DECISION-MAKING EFFECTIVENESS	ACADEMY OF MANAGEMENT JOURNAL			English	Article									UNIV WISCONSIN,GRAD SCH BUSINESS,MADISON,WI 53706							Bales R. F, 1953, WORKING PAPERS THEOR; BENNE KD, 1948, J SOCIAL ISSUES, V2; BENNETT EB, 1955, HUMAN RELATIONS, V8; BOUCHARD TJ, 1953, J APPLIED PSYCHOLO 2, V53; BOUCHARD TJ, 1970, J APPLIED PSYCHOLOGY, V54; BRILHART JK, 1964, J APPLIED PSYCHOLOGY, V48; CAMPBELL JP, 1968, J APPLIED PSYCHOLOGY, V52; COLLAROS FA, 1969, J APPLIED PSYCHOLOGY, V53; CULBERT SA, J APPLIED BEHAVIORAL, V4; DALKEY NC, 1963, MANAGEMENT SCIENCE; DELBECQ AL, TO BE PUBLISHED; Deutsch M., 1949, HUMAN RELATIONS, V2; DUNNETTE M, 1963, J APPLIED PSYCHOLOGY, V47; DUNNETTE MD, 1964, PERSONNEL ADMINI MAR; FOUREIZOS NT, 1950, J ABNORMAL SOCIAL PS, V45; GOLDMAN M, 1961, J SOCIAL PSYCHOLOGY, V54; GRACE HA, 1954, J SOCIAL PSYCHOLOGY, V40; GUETZKOW H, 1954, HUMAN RELATIONS, V7; HALL EJ, 1963, J SOCIAL PSYCHOLOGY, V59; HAYTHORN W, 1953, J ABNORMAL SOCIAL PS, V48; HOFFMAN LR, 1965, ADV EXPTL SOCIAL PSY, V2; HOFFMAN LR, 1959, J ABNORMAL SOCIAL PS, V58; HOFFMAN LR, 1961, J ABNORMAL SOCIAL PS, V62; HOFFMAN LW, 1960, SOCIOMETRY, V23; HOROWITZ MW, 1964, J ABNORMAL SOCIAL PS, V68; KELLY HH, 1954, HDB SOCIAL PSYCHOLOG; LEADER A, 1963, THESIS INDIANA U; LEAVITT HJ, 1951, J ABNORMAL SOCIAL PS, V46; MAIER NR, 1957, J APPLIED PSYCHOLOGY, V4; MAIER NRF, 1952, HUMAN RELATIONS, V3; MAIER NRF, 1960, J APPLIED PSYCHOLOGY, V44; MAIER NRF, 1957, SUPERVISORY EXECUTIV; MAIER NRF, 1958, APPRAISAL INTERVIEW; OSBORN AF, 1957, APPLIED IMAGINATION; PARNES JS, 1959, J EDUCATIONAL PSYCHO, V50; PARNES JS, 1961, J EDUCATIONAL PSYCHO, V52; PELZ DC, 1956, ADMINISTRATIVE SCIEN; SHAW ME, 1954, J EXPTL PSYCHOLOGY, V48; SHUKLA RH, 1970, THESIS U WISCONSIN; SPEESMAN JC, 1962, J ABNORMAL SOCIAL PS, V65; TAYLOR DW, 1958, ADMINISTRATIVE SCIEN, V3; TORRANCE EP, 1957, SOCIAL FORCES, V35; VROOM VH, 1969, J APPLIED PSYCHOLOGY, V53; ZOGONA SV, 1966, J PSYCHOLOGY, V62	44	212	212	0	14	ACAD MANAGEMENT	BRIARCLIFF MANOR	PACE UNIV, PO BOX 3020, 235 ELM RD, BRIARCLIFF MANOR, NY 10510-8020	0001-4273			ACAD MANAGE J	Acad. Manage. J.		1971	14	2					203	212		10.2307/255307				10	Business; Management	Business & Economics	J7336	WOS:A1971J733600004					2019-01-18	
J	LEE, SM				LEE, SM			EMPIRICAL ANALYSIS OF ORGANIZATIONAL IDENTIFICATION	ACADEMY OF MANAGEMENT JOURNAL			English	Article									VIRGINIA POLYTECH INST & STATE UNIV,BLACKSBURG,VA 24061							Festinger L., 1950, SOCIAL PRESSURES INF; GOULDNER A, 1957, ADMINISTRATIVE SCIEN, V2; HALL DT, 1970, ADMINISTRATIVE SCIEN, V15; Herzberg F, 1959, MOTIVATION WORK; Herzberg F., 1966, WORK NATURE MAN; KAPLAN N, 1965, SOCIAL PROBLEMS, V13; KORNHAUSER W, 1962, SCIENTISTS INDUSTRY; LEE SM, 1969, ACAD MANAGE J, V12; LEVINSON H, 1965, ADMINISTRATIVE SCIEN, V9; LEWIS LS, 1967, ADMINISTRATIVE SCIEN, V11; MARCH JG, 1963, ORGANIZATION; SANFORD N, 1955, PSYCHOLOGICAL REV, V62; SAYLES LR, 1958, BEHAVIOR INDUSTRIAL; SEASHORT S, 1954, GROUP COHESIVENESS I; STOTLAND E, 1961, J ABNORMAL SOCIAL PS, V62	15	133	134	0	12	ACAD MANAGEMENT	BRIARCLIFF MANOR	PACE UNIV, PO BOX 3020, 235 ELM RD, BRIARCLIFF MANOR, NY 10510-8020	0001-4273			ACAD MANAGE J	Acad. Manage. J.		1971	14	2					213	226		10.2307/255308				14	Business; Management	Business & Economics	J7336	WOS:A1971J733600005					2019-01-18	
J	DESALVIA, DN; GEMMILL, GR				DESALVIA, DN; GEMMILL, GR			EXPLORATORY STUDY OF PERSONAL VALUE SYSTEMS OF COLLEGE STUDENTS AND MANAGERS	ACADEMY OF MANAGEMENT JOURNAL			English	Article									SYRACUSE UNIV,COLL BUSINESS ADM,SYRACUSE,NY 13210; MICHIGAN STATE UNIV,COLL BUSINESS ADM,E LANSING,MI 48823							ATHOS AG, 1970, HARVARD BUSINESS JAN; CULBERT S, 1970, HARVARD BUSINESS NOV; ENGLAND G, 1967, J ACADEMY MANAGE MAR; FIELDER J, 1970, BUSINESS HORIZON JUN; RUKEYSER W, 1969, FORTUNE          JAN; SCHEIN EH, 1964, HARVARD BUSINESS REV, V42; SELIDMAN D, 1969, FORTUNE          JAN; 1969, FORTUNE          JAN	8	15	15	0	1	ACAD MANAGEMENT	BRIARCLIFF MANOR	PACE UNIV, PO BOX 3020, 235 ELM RD, BRIARCLIFF MANOR, NY 10510-8020	0001-4273			ACAD MANAGE J	Acad. Manage. J.		1971	14	2					227	238		10.2307/255309				12	Business; Management	Business & Economics	J7336	WOS:A1971J733600006					2019-01-18	
J	CUMMINGS, LL; HARNETT, DL; STEVENS, OJ				CUMMINGS, LL; HARNETT, DL; STEVENS, OJ			RISK, FATE, CONCILIATION AND TRUST - INTERNATIONAL STUDY OF ATTITUDINAL DIFFERENCES AMONG EXECUTIVES	ACADEMY OF MANAGEMENT JOURNAL			English	Article									INDIANA UNIV,GRAD SCH BUSINESS,BLOOMINGTON,IN 47401; UNIV WISCONSIN,GRAD SCH BUSINESS & IND RELATIONS RES,MADISON,WI 53706; EUROPEAN INST BUSINESS ADM,INSEAD,FONTAINEBLEAU,FRANCE							Haire M., 1966, MANAGERIAL THINKING; HALL DJ, 1969, EUROPEAN BUSINES OCT, P45; SHURE GH, 1967, J PSYCHOL, V65, P233, DOI 10.1080/00223980.1967.10544868	3	19	19	0	7	ACAD MANAGEMENT	BRIARCLIFF MANOR	PACE UNIV, PO BOX 3020, 235 ELM RD, BRIARCLIFF MANOR, NY 10510-8020	0001-4273			ACAD MANAGE J	Acad. Manage. J.		1971	14	3					285	304		10.2307/255074				20	Business; Management	Business & Economics	K4272	WOS:A1971K427200001					2019-01-18	
J	DEWHIRST, HD				DEWHIRST, HD			INFLUENCE OF PERCEIVED INFORMATION-SHARING NORMS ON COMMUNICATION CHANNEL UTILIZATION	ACADEMY OF MANAGEMENT JOURNAL			English	Article									UNIV TENNESSEE,KNOXVILLE,TN 37916							ALLEN TJ, TIME ALLOCATION AMON; ALLEN TJ, 1969, ANNUAL REV INFORMATI, V4; ALLEN TJ, 1969, ADMINISTRATIVE SCIEN, V14; GERSTBERGER PG, 1968, J APPLIED PSYCHOLOGY, V52; Katz E., 1955, PERSONAL INFLUENCE P; LADENDORF JM, 1970, SPECIAL LIBRARIES, V61; LITWIN GH, 1968, MOTIVATION ORGANIZAT; MENZEL H, 1966, ANNUAL REV INFORMATI; PAISLEY WJ, 1968, ANNUAL REV INFORMATI, V3; PELZ DC, 1966, SCIENTISTS ORGANIZAT; ROSENBLOOM RS, 1967, TECHNOLOGY INFORMATI	11	43	43	1	6	ACAD MANAGEMENT	BRIARCLIFF MANOR	PACE UNIV, PO BOX 3020, 235 ELM RD, BRIARCLIFF MANOR, NY 10510-8020	0001-4273			ACAD MANAGE J	Acad. Manage. J.		1971	14	3					305	315		10.2307/255075				11	Business; Management	Business & Economics	K4272	WOS:A1971K427200002					2019-01-18	
J	MOSKOWITZ, H				MOSKOWITZ, H			MANAGERS AS PARTNERS IN BUSINESS DECISION RESEARCH	ACADEMY OF MANAGEMENT JOURNAL			English	Article									PURDUE UNIV, HERMAN C KRANNERT GRAD SCH IND ADM, LAFAYETTE, IN 47907 USA							ALPERT B, 1967, J BUSINESS, V40; ANDREWS RB, 1967, CALIFORNIA MANAG WIN; BROWN R, 1970, HARVARD BUSINESS MAY; FLEMING JE, 1969, ACADEMY MANAGEMENT J, V12; GREEN P, 1967, EXPT VALUE INFORMATI; GREEN P, 1966, J PURCHASING     FEB; KARMEL B, 1970, THESIS PURDUE U; MOSKOWITZ H, 1970, THESIS U CALIFORNIA; PEARSON AW, 1969, SCIENCE J        AUG; TORGERSEN P, 1967, J INDUSTRIAL ENGINEE, V18	10	7	7	0	1	ACAD MANAGEMENT	BRIARCLIFF MANOR	PACE UNIV, PO BOX 3020, 235 ELM RD, BRIARCLIFF MANOR, NY 10510-8020 USA	0001-4273	1948-0989		ACAD MANAGE J	Acad. Manage. J.		1971	14	3					317	325		10.2307/255076				9	Business; Management	Business & Economics	K4272	WOS:A1971K427200003					2019-01-18	
J	MCMAHON, JT; PERRITT, GW				MCMAHON, JT; PERRITT, GW			CONTROL STRUCTURE OF ORGANIZATIONS - EMPIRICAL EXAMINATION	ACADEMY OF MANAGEMENT JOURNAL			English	Article									UNIV KENTUCKY,COLL BUSINESS & ECON,LEXINGTON,KY 40506							BOWERS DG, 1966, ADMINISTRATIVE SCIEN, V11; BOWERS DG, 1964, SOCIOMETRY, V27; Coch L, 1948, HUMAN RELATIONS, V1; FRENCH JRP, 1960, HUMAN RELATIONS, V13; GUETZKOW H, 1965, HDB ORGANIZATIONS; LIKERT R, 1967, HUMAN ORGANIZATION; PATCHEN M, 1963, AM J SOCIOLOGY, V69; SHEPARD HA, 1965, HDB ORGANIZATIONS; SMITH CG, 1964, SOCIOMETRY, V27; SMITH CG, 1963, HUMAN RELATIONS, V16; TANNENBAUM AS, 1968, CONTROL ORGANIZATION; TANNENBAUM AS, 1961, AM J SOCIOLOGY, V67	12	9	9	1	4	ACAD MANAGEMENT	BRIARCLIFF MANOR	PACE UNIV, PO BOX 3020, 235 ELM RD, BRIARCLIFF MANOR, NY 10510-8020	0001-4273			ACAD MANAGE J	Acad. Manage. J.		1971	14	3					327	340		10.2307/255077				14	Business; Management	Business & Economics	K4272	WOS:A1971K427200004					2019-01-18	
J	PARLOUR, RR				PARLOUR, RR			EXECUTIVE TEAM TRAINING	ACADEMY OF MANAGEMENT JOURNAL			English	Article									LOMA LINDA UNIV,SCH MED,BEHAV SCI EDUC CTR,LOMA LINDA,CA 92505							BLAKE RR, 1962, J AM SOC TRAININ JAN; GLASSER W, 1965, REALITY THERAPY; MOWRER OH, 1964, NEW GROUP THERAPY; PARLOUR RR, 1968, RESPONSIBILITY THERA	4	1	1	0	2	ACAD MANAGEMENT	BRIARCLIFF MANOR	PACE UNIV, PO BOX 3020, 235 ELM RD, BRIARCLIFF MANOR, NY 10510-8020	0001-4273			ACAD MANAGE J	Acad. Manage. J.		1971	14	3					341	344		10.2307/255078				4	Business; Management	Business & Economics	K4272	WOS:A1971K427200005					2019-01-18	
J	SCHOLLHAMMER, H				SCHOLLHAMMER, H			ORGANIZATION STRUCTURES OF MULTINATIONAL CORPORATIONS	ACADEMY OF MANAGEMENT JOURNAL			English	Article									COLUMBIA UNIV, NEW YORK, NY 10027 USA							CLEE GH, 1964, HARVARD BUSINESS NOV; DUERR MG, 1968, PROBLEMS FACING INT; FOURAKER LE, 1968, ADMINISTRATIVE S JUN; GORDON PJ, 1970, J COMPARATIVE AD MAY; HAYDEN S, 1968, PERSONNEL        MAR; HAYDEN S, 1968, PERSONNEL        JUL; KAUFMAN O, 1970, MANAGEMENT INT; LAWRENCE PR, 1969, DEVELOPING ORGANIZAT; LOVELL EB, 1966, CHANGING ROLE INT EX; MCDONALD JG, 1961, MANAGEMENT INT, V1; RUTENBERG DP, 1970, MANAGEMENT SCIENCE, V16; STIEGLITZ H, 1965, ORGANIZATION STRUCTU	12	13	13	0	4	ACAD MANAGEMENT	BRIARCLIFF MANOR	PACE UNIV, PO BOX 3020, 235 ELM RD, BRIARCLIFF MANOR, NY 10510-8020 USA	0001-4273	1948-0989		ACAD MANAGE J	Acad. Manage. J.		1971	14	3					345	365		10.2307/255079				21	Business; Management	Business & Economics	K4272	WOS:A1971K427200006					2019-01-18	
J	MINER, JB				MINER, JB			SUCCESS IN MANAGEMENT CONSULTING AND CONCEPT OF ELITENESS MOTIVATION	ACADEMY OF MANAGEMENT JOURNAL			English	Article									UNIV MARYLAND,COLL BUSINESS & PUBL ADM,BEHAV SCI DIV,COLLEGE PK,MD 20740							CAMPBELL JP, 1970, MANAGERIAL BEHAVIOR; CUMMIN PC, 1967, J APPLIED PSYCHOLOGY, V51; GINZBERG E, 1959, LOST DIVISIONS; Guion R. M, 1965, PERSONNEL TESTING; LAWRENCE PR, 1967, ORGANIZATION ENVIRON; LITWIN GH, 1968, MOTIVATION ORGANIZAT; LOPEZ FM, 1970, MAKING MANAGER; MINER JB, 1971, PERSONNEL PSYCHOLOGY, V24; MINER JB, 1971, MANAGEMENT THEORY; MINER JB, 1970, PERSONNEL PSYCHOLOGY, V23; PRICE JL, 1968, ORGANIZATIONAL EFFEC; SMITH CP, 1964, J ABNORMAL SOCIAL PS, V68	12	7	7	0	2	ACAD MANAGEMENT	BRIARCLIFF MANOR	PACE UNIV, PO BOX 3020, 235 ELM RD, BRIARCLIFF MANOR, NY 10510-8020	0001-4273			ACAD MANAGE J	Acad. Manage. J.		1971	14	3					367	378		10.2307/255080				12	Business; Management	Business & Economics	K4272	WOS:A1971K427200007					2019-01-18	
J	SENGER, J				SENGER, J			MANAGERS PERCEPTIONS OF SUBORDINATES COMPETENCE AS A FUNCTION OF PERSONAL VALUE ORIENTATIONS	ACADEMY OF MANAGEMENT JOURNAL			English	Article									USN,POSTGRAD SCH,MONTEREY,CA 93940							CARTER LF, 1956, HUMAN RELATIONS, V9; ENGLAND GW, 1967, ACAD MANAGE J, V10; FIEDLER FE, 1958, NR170106 ONR PROJ; FRIEDLANDER F, 1965, PERSONNEL PSYCHOLOGY, V18; GUTH WD, 1965, HARVARD BUSINESS SEP; HOFFMAN LR, 1959, J ABNORMAL SOCIAL PS, V58; KING DC, 1958, DISS ABSTR, V18; MCMURRY RN, 1963, HARVARD BUSINESS REV, V41; Osgood C.E., 1957, MEASUREMENT MEANING; PRECKER JA, 1952, J ABNORMAL SOCIAL PS, V47; SCHUTZ WC, 1955, HUMAN RELATIONS, V8; SCODEL A, 1961, J PSYCHOLOGY, V52; SENGER JD, 1966, 9 P ANN MIDW MAN C; Spranger E., 1928, TYPES MEN; TAGIURI R, 1965, ADMINISTRATIVE S JUN; TUCKER L, 1965, EXPT MULTIMODE FACTO	16	44	44	1	3	ACAD MANAGEMENT	BRIARCLIFF MANOR	PACE UNIV, PO BOX 3020, 235 ELM RD, BRIARCLIFF MANOR, NY 10510-8020	0001-4273			ACAD MANAGE J	Acad. Manage. J.		1971	14	4					415	423		10.2307/255057				9	Business; Management	Business & Economics	L3226	WOS:A1971L322600001					2019-01-18	
J	ENGLAND, GW; LEE, R				ENGLAND, GW; LEE, R			ORGANIZATIONAL GOALS AND EXPECTED BEHAVIOR AMONG AMERICAN, JAPANESE AND KOREAN MANAGERS - COMPARATIVE STUDY	ACADEMY OF MANAGEMENT JOURNAL			English	Article									UNIV MINNESOTA,MINNEAPOLIS,MN 55455							Adams T.E., 1969, WORLD JAPANESE BUSIN; BARRET GV, 1968, 76 ANN CONV AM PSYCH; DENT JK, 1959, PERSONNEL PSYCHOLOGY, V12; ENGLAND GW, 1970, MAR EXCH SEM COMP OR; ENGLAND GW, 1968, J ASIATIC RESEARCH, V2; ENGLAND GW, 1970, J CROSS CULTURAL MAR; ENGLAND GW, 1967, ACAD MANAGE J, V10; HOEKSTRA MHR, 1969, 16 P INT C APPL PSYC; *KOR BUS ASS, 1965, CULTURAL SOCIAL CHAR; *KOR BUS ASS, 1965, LABOR MANAGEMENT REL; MAHONEY TA, 1967, 10 ANN AC MAN C MIDW; MAHONEY TA, 1966, CRITERIA ORGANIZATIO; Simon H., 1957, MODELS MAN SOCIAL RA; SIMON HA, 1964, ADMINISTRATIVE SCIEN, V9; SIMON HA, 1959, AM ECONOMIC REV, V49; YOSHINO MY, 1968, JAPANS MANAGERIAL SY	16	15	15	0	3	ACAD MANAGEMENT	BRIARCLIFF MANOR	PACE UNIV, PO BOX 3020, 235 ELM RD, BRIARCLIFF MANOR, NY 10510-8020	0001-4273			ACAD MANAGE J	Acad. Manage. J.		1971	14	4					425	438		10.2307/255058				14	Business; Management	Business & Economics	L3226	WOS:A1971L322600002					2019-01-18	
J	SHETTY, YK				SHETTY, YK			OWNERSHIP, SIZE, TECHNOLOGY, AND MANAGEMENT DEVELOPMENT - COMPARATIVE ANALYSIS	ACADEMY OF MANAGEMENT JOURNAL			English	Article									UTAH STATE UNIV,LOGAN,UT 84321							HARBISON F, 1959, MANAGEMENT INDUSTRIA	1	2	2	0	1	ACAD MANAGEMENT	BRIARCLIFF MANOR	PACE UNIV, PO BOX 3020, 235 ELM RD, BRIARCLIFF MANOR, NY 10510-8020	0001-4273			ACAD MANAGE J	Acad. Manage. J.		1971	14	4					439	449		10.2307/255059				11	Business; Management	Business & Economics	L3226	WOS:A1971L322600003					2019-01-18	
J	KEGAN, DL				KEGAN, DL			ORGANIZATIONAL DEVELOPMENT - DESCRIPTION, ISSUES, AND SOME RESEARCH RESULTS	ACADEMY OF MANAGEMENT JOURNAL			English	Article									NORTHWESTERN UNIV,RES & DEV LABS,EVANSTON,IL 60201							Alinsky S., 1946, REVEILLE RADICALS; BECKHARD R, 1969, ORGANIZATION DEVELOP; BECKHARD R, 1967, HARVARD BUSINESS REV, V45; BENNE KE, 1964, T GROUP THEORY LABOR; BENNIS WG, 1969, ORGANIZATION DEVELOP; BENNIS WG, 1962, NTL HUMAN RELATIONS, V6; Blake R., 1969, BUILDING DYNAMIC COR; BLODGETT T, 1968, HARVARD BUSINESS MAY; BRONOWSKI J, 1965, SCIENCE HUMAN VALUES; BURKE RL, 1970, OD PRACTITIONER  APR; CARR AZ, 1968, HARVARD BUSINESS MAY; DAVIS SA, 1969, J APPLIED BEHAVIORAL, V3; DUHL LJ, 1967, DAEDULUS, V63; DUNCAN S, 1969, PSYCHOLOGICAL B, V72; EURITT R, 1970, OCT NTL OD NETW M MI; GARDNER JW, 1964, SELF RENEWAL INDIVID; GRACE W, 1970, OCT SEM FALL M NTL O; HARRISON R, 1970, J APPLIED BEHAVIORAL, V6; HENDERSON BD, 1967, HARVARD BUSINESS MAR; Kaplan A, 1964, CONDUCT INQUIRY METH; LAWRENCE PR, 1969, DEVELOPING ORGANIZAT; LAWRENCE PR, 1967, ADMINISTRATIVE SCIEN, V12; LEAVITT HJ, 1965, HDB ORGANIZATIONS; MEHRABIAN A, 1969, PSYCHOLOGICAL B, V71; Merrill Harwood F., 1960, CLASSICS MANAGEMENT; MILL C, 1969, NTL HUMAN RELATIONS, V13; Moreno J. L, 1946, PSYCHODRAMA, V1; MORENO JL, 1969, GROUP PSYCHOTHERAPY, V22, P1; NYLEN D, 1967, HDB STAFF DEVELOPMEN; Perls F., 1969, GESTALT THERAPY VERB; RODGERS CR, 1967, CHALLENGES HUMANISTI; Schein E. H., 1969, PROCESS CONSULTATION; SEASHORE SE, 1970, AM PSYCHOLOGIST, V25; SIEGIL SM, 1969, OCT OH PSYCH ASS; Simon H., 1965, SHAPE AUTOMATION MEN; Spolin Viola, 1963, IMPROVISATION THEATE; Walton R., 1969, INTERPERSONAL PEACEM; WHYTE WF, 1967, HUMAN ORGANIZATION, V26; WILMOTTE RM, 1970, IEEE SPECTRUM, V7; 1968, NTL NEWS REPORTS, V2	40	10	10	0	2	ACAD MANAGEMENT	BRIARCLIFF MANOR	PACE UNIV, PO BOX 3020, 235 ELM RD, BRIARCLIFF MANOR, NY 10510-8020	0001-4273			ACAD MANAGE J	Acad. Manage. J.		1971	14	4					453	464		10.2307/255060				12	Business; Management	Business & Economics	L3226	WOS:A1971L322600004					2019-01-18	
J	GOLEMBIEWSKI, RT; MUNZENRI.R; BLUMBERG, A; CARRIGAN, SB; MEAD, WR				GOLEMBIEWSKI, RT; MUNZENRI.R; BLUMBERG, A; CARRIGAN, SB; MEAD, WR			CHANGING CLIMATE IN A COMPLEX ORGANIZATION - INTERACTIONS BETWEEN A LEARNING DESIGN AND AN ENVIRONMENT	ACADEMY OF MANAGEMENT JOURNAL			English	Article									SK&F LABS, PHILADELPHIA, PA 19101 USA; UNIV GEORGIA, DEPT POLITICAL SCI, ATHENS, GA 30601 USA; SYRACUSE UNIV, SYRACUSE, NY 13210 USA							ARGYRIS C, 1968, INDUSTRIAL RELATIONS, V8; Campbell Donald T., 1963, PROBLEMS MEASURING C; GOLEMBIEWSKI RT, 1969, TRAINING DEVELOPMENT, V23; GOLEMBIEWSKI RT, 1967, J APPLIED BEHAVIORAL, V3; GOLEMBIEWSKI RT, 1970, ADMINISTRATIVE SCIEN, V13; GOLEMBIEWSKI RT, 1970, ADMINISTRATIVE SCIEN, V15; LIKERT R, 1970, HUMAN ORGANIZATION; NORTHRUP FSC, 1948, LOGIC SCIENCES HUMAN; SCHEIN EH, 1965, PERSONAL ORGANIZATIO	9	8	8	0	3	ACAD MANAGEMENT	BRIARCLIFF MANOR	PACE UNIV, PO BOX 3020, 235 ELM RD, BRIARCLIFF MANOR, NY 10510-8020 USA	0001-4273	1948-0989		ACAD MANAGE J	Acad. Manage. J.		1971	14	4					465	481		10.2307/255061				17	Business; Management	Business & Economics	L3226	WOS:A1971L322600005					2019-01-18	
J	GRAHAM, GH				GRAHAM, GH			INTERPERSONAL ATTRACTION AS A BASIS OF INFORMAL ORGANIZATION	ACADEMY OF MANAGEMENT JOURNAL			English	Article									WICHITA STATE UNIV,COLL BUSINESS ADM,DEPT ADM,WICHITA,KS 67208							ARGYRIS C, 1954, ADMINISTRATION SCIEN, V19; Argyris C., 1964, INTEGRATING INDIVIDU; ARGYRIS C, 1959, ADMINISTRATIVE SCIEN, V4; BENNIS W, 1965, TRANSACTION, V2; BENNIS WG, 1966, CHANGING ORGANIZATIO; BRAYFIELD AH, 1955, PSYCHOLOGICAL B, V52; COLEMAN JS, 1958, HUMAN ORGANIZATION, V17; Festinger L., 1954, HUMAN RELATIONS, V7; Festinger L., 1950, SOCIAL PRESSURES INF; GROSS E, 1956, AM SOCIOLOGICAL REV, V21; HEIDER F, 1959, PSYCHOLOGY INTERPERS; HOLLANDER E, 1969, PSYCHOLOGICAL B, V71; KATZ D, 1966, SOCIAL PSYCHOLOGY; MOMENT D, 1964, ROLE DEVELOPMENT INT; Newcomb T. N, 1961, ACQUAINTANCE PROCESS; NEWCOMB TM, 1960, GROUP DYNAMICS RESEA	16	5	5	1	5	ACAD MANAGEMENT	BRIARCLIFF MANOR	PACE UNIV, PO BOX 3020, 235 ELM RD, BRIARCLIFF MANOR, NY 10510-8020	0001-4273			ACAD MANAGE J	Acad. Manage. J.		1971	14	4					483	495		10.2307/255062				13	Business; Management	Business & Economics	L3226	WOS:A1971L322600006					2019-01-18	
J	SWART, JC; BALDWIN, RA				SWART, JC; BALDWIN, RA			EDP EFFECTS ON CLERICAL WORKERS	ACADEMY OF MANAGEMENT JOURNAL			English	Article									CROWN ZELLERBACH CORP,SAN FRANCISCO,CA 94119; BALL STATE UNIV,MUNCIE,IN 47306							ANSHEN M, 1960, HARVARD BUSINESS REV, V38; BRADY RH, 1967, HARVARD BUSINESS REV, V45; BRADY RH, 1967, 1468 BUR LAB STAT B; Bright J. R., 1958, AUTOMATION MANAGEMEN; BRIGHT JR, 1958, AUTOMATION EMPLOYMEN; BURLINGAME JF, 1961, HARVARD BUSINESS REV, V39; CRAIG HF, 1955, ADMINISTERING CONVER; DALE E, 1964, DECISION MAKING PROC; DEARDEN J, 1967, HARVARD BUSINESS REV, V45; DEARDEN J, 1966, HARVARD BUSINESS REV, V44; DELEHANTY GE, 1966, INDUSTRIAL MANAGEMEN, V7; DIEBOLD J, 1965, HARVARD BUSINESS REV, V43; HOFER CW, 1970, HARVARD BUSINESS REV, V48; HOOS IR, 1960, HARVARD BUSINESS REV, V38; LEAVITT HJ, 1958, HARVARD BUSINESS REV, V39; LEE HC, 1965, 1 STAT U NEW YORK B; LEE HC, 1970, HUMAN RESOURCES ADMI; MANN FC, 1960, ADMINISTRATIVE SCIEN, V5; SCHWITTER JP, 1965, ACAD MANAGE J, V8; SHAUL DR, 1964, PERSONNEL, V41; Simon H. A., 1960, MANAGEMENT CORPORATI; *STAND POORS CORP, 1969, POORS REGISTER CORPO; STIEBER J, 1957, PERSONNEL, V34; WEBER C, 1959, J BUSINESS, V32; WEBER C, 1959, PERSONNEL ADMINISTRA, V22; WEINBERG E, 1960, MONTHLY LABOR REV, V183; WEINBERG E, 1960, 1276 BUR LAB STAT B; 1969, FORTUNE, V79; 1970, MONTHLY LABOR REV, V93; 1967, OCCUPATIONAL OUT MAY	30	0	0	0	1	ACAD MANAGEMENT	BRIARCLIFF MANOR	PACE UNIV, PO BOX 3020, 235 ELM RD, BRIARCLIFF MANOR, NY 10510-8020	0001-4273			ACAD MANAGE J	Acad. Manage. J.		1971	14	4					497	512		10.2307/255063				16	Business; Management	Business & Economics	L3226	WOS:A1971L322600007					2019-01-18	
J	GOLEMBIEWSKI, RT				GOLEMBIEWSKI, RT			ORGANIZATIONAL PROPERTIES AND MANAGERIAL LEARNING - TESTING ALTERNATIVE MODELS OF ATTITUDINAL CHANGE	ACADEMY OF MANAGEMENT JOURNAL			English	Article									UNIV GEORGIA,DEPT POLITICAL SCI,ATHENS,GA							BENNIS WG, 1966, CHANGING ORGANIZATIO, P15; BLUMBERG A, IN PRESS; FESTINGER L, 1957, THEOR COGNITIVE DIS, P18; FRENCH JRP, 1957, PSYCHOLOGICAL REV, V63, P181; GOLEMBIEWSKI RT, 1965, HDB ORGANIZATIONS, P89; GOLEMBIEWSKI RT, IN PRESS; GOLEMBIEWSKI RT, 1969, APPROACHES STUDY POL; GOLEMBIEWSKI RT, 1967, PUBLIC ADMINISTRATIO, V27, P217; HALPIN AW, 1963, ORGANIZATIONAL CLIMA; HEIDER F, 1958, PSYCHOLOGY INTERPERS, P177; MARQULIES N, 1965, THESIS UCLA; Marrow Alfred J., 1967, MANAGEMENT PARTICIPA; OSHRY BI, 1966, J APPL BEHAV SCI, V2, P185, DOI 10.1177/002188636600200206; PUGH DS, 1968, ADMIN SCI QUART, V13, P65, DOI 10.2307/2391262; SCHEIN EH, 1965, PERSONAL ORGANIZATIO; WHITTAKER JO, 1967, ATTITUDE EGO INVOLVE, P168	16	5	5	0	6	ACAD MANAGEMENT	BRIARCLIFF MANOR	PACE UNIV, PO BOX 3020, 235 ELM RD, BRIARCLIFF MANOR, NY 10510-8020	0001-4273			ACAD MANAGE J	Acad. Manage. J.		1970	13	1					13	31		10.2307/254923				19	Business; Management	Business & Economics	F6614	WOS:A1970F661400001					2019-01-18	
J	HAMELMAN, PW				HAMELMAN, PW			MISSIONS, MATRICES AND UNIVERSITY MANAGEMENT	ACADEMY OF MANAGEMENT JOURNAL			English	Article									VIRGINIA POLYTECH INST & STATE UNIV,BLACKSBURG,VA							BARZUN J, 1968, AM U; BENNIS W, 1969, SYSTEMS ORGANIZATION, P11; FIRMIN PA, 1967, U COST STRUCTURE BEH, P26; GROSS N, 1963, HARVARD EDUCATIONAL, V33; GROSSE RN, 1968, ANALYSIS PLANNING PR, P138; HAMELMAN PW, 1969, ORSA B           SPR; LUTHANS F, 1967, FACULTY PROMOTIONS A; MCCONNELL TR, 1963, STUDY ACADEMY ADMINI; MEE JF, 1964, BUSINESS HORIZONS; MORAN WE, 1968, J HIGHER EDUCATION, V39, pR3; *TEX COLL U SYST C, 1968, GUIDELINES PLANNING; VANCE S, 1967, CAN DEANS BE TAUGHT; WAYS M, 1966, FORTUNE          JUL; 1968, ACADEMY MANAGEME JUN	14	1	1	0	2	ACAD MANAGEMENT	BRIARCLIFF MANOR	PACE UNIV, PO BOX 3020, 235 ELM RD, BRIARCLIFF MANOR, NY 10510-8020	0001-4273			ACAD MANAGE J	Acad. Manage. J.		1970	13	1					35	47		10.2307/254924				13	Business; Management	Business & Economics	F6614	WOS:A1970F661400002					2019-01-18	
J	ERICSON, RF				ERICSON, RF			ORGANIZATIONAL CYBERNETICS AND HUMAN VALUES	ACADEMY OF MANAGEMENT JOURNAL			English	Article									GEORGE WASHINGTON UNIV,SCH GOVT & BUSINESS ADM,WASHINGTON,DC							ARGYRIS C, 1957, ADMINISTRATIVE S JUN, P9; BEER S, 1960, YB SOC GENERAL SYSTE, V5, P17; BEER S, 1959, CYBERNETICS MANAGEME; BEER S, 1968, DECISION CONTROL; BENN AW, 1968, NEW STATESMAN   1212, P827; Boguslaw R, 1965, NEW UTOPIANS STUDY S; CARR EH, 1961, WHAT HISTORY, P207; DAEDALUS, 1967, TOWARD YEAR 2000; Dichter E., 1965, HARVARD BUSINESS MAY, P6; ERICSON RF, 1962, MANAGEMENT SCIENCE, P47; FERKISS VC, 1969, TECHNOLOGICAL MAN MY; FORRESTER J, 1958, HARVARD BUSINESS JUL; FRIED L, 1966, DATA PROCESSING  NOV, P44; FULLER RB, 1968, WORLD GAME HOW CAME; Kahn H., 1967, YEAR 2000 FRAMEWORK; KORPROWSKI EJ, 1968, MANAGEMENT PERSO WIN; LEVINSON H, 1965, ADMINISTRATIVE SCIEN, P370; McHale J, 1969, FUTURE FUTURE; MORISON RS, 1969, SCIENCE         0711, P154; PEATTIE LR, 1965, J APPLIED BEHAVIORAL, V1, P371; RAPOPORT A, 1968, MODERN SYSTEMS RESEA, P22; ROBERTS WO, 1967, AM SCHOLAR, P252; Rotter J. B., 1954, SOCIAL LEARNING CLIN; TAGIURI R, 1965, ADMINISTRATIVE S JUN, P40; WAYS M, 1964, FORTUNE          MAY, P113; WIENER N, 1966, GOD GOLEM INC, P90; Wiener Norbert, 1960, SCIENCE; 1968, 15 INT M I MAN SCIEN	28	3	3	1	2	ACAD MANAGEMENT	BRIARCLIFF MANOR	PACE UNIV, PO BOX 3020, 235 ELM RD, BRIARCLIFF MANOR, NY 10510-8020	0001-4273			ACAD MANAGE J	Acad. Manage. J.		1970	13	1					49	66		10.2307/254925				18	Business; Management	Business & Economics	F6614	WOS:A1970F661400003					2019-01-18	
J	IVANCEVICH, JM; BAKER, JC				IVANCEVICH, JM; BAKER, JC			COMPARATIVE STUDY OF SATISFACTION OF DOMESTIC UNITED-STATES MANAGERS AND OVERSEAS UNITED-STATES MANAGERS	ACADEMY OF MANAGEMENT JOURNAL			English	Article									UNIV KENTUCKY,LEXINGTON,KY; SAN FRANCISCO STATE COLL,SAN FRANCISCO,CA							ANGEL JL, 1966, DIRECTORY FIRMS OPER; CUMMINGS LL, 1968, PSYCHOL BULL, V70, P127, DOI 10.1037/h0026038; EDEL EC, 1966, PERSONNEL ADM, V29, P31; FARMER R, 1964, CALIFORNIA MANAGEMEN, V6, P55; GONZALEZ RF, 1961, J ACAD MANAGE, V4, P33; Haire M., 1966, MANAGERIAL THINKING; HARBISON F, 1959, MANAGEMENT INDUSTRIA; Maslow A. H., 1954, MOTIVATION PERSONALI; NEGANDHI AR, 1965, J ACADEMY MANAGEMENT, V8, P309; OBERG W, 1963, J ACAD MANAGEMENT, V6, P129; Porter L.W., 1968, MANAGERIAL ATTITUDES; PORTER LW, 1962, J APPL PSYCHOL, V46, P375, DOI 10.1037/h0047808; PORTER LW, 1961, J APPL PSYCHOL, V45, P1, DOI 10.1037/h0043121; PORTER LW, 1968, HARVARD BUS REV, V46, P118; PORTER LW, 1963, J APPL PSYCHOL, V47, P386, DOI 10.1037/h0041064; RUBIN E, 1966, ANNALS, V368, P6	16	13	13	0	2	ACAD MANAGEMENT	BRIARCLIFF MANOR	PACE UNIV, PO BOX 3020, 235 ELM RD, BRIARCLIFF MANOR, NY 10510-8020	0001-4273			ACAD MANAGE J	Acad. Manage. J.		1970	13	1					69	77		10.2307/254926				9	Business; Management	Business & Economics	F6614	WOS:A1970F661400004					2019-01-18	
J	ELBING, AO				ELBING, AO			VALUE ISSUE OF BUSINESS - RESPONSIBILITY OF BUSINESSMAN	ACADEMY OF MANAGEMENT JOURNAL			English	Article									SUNY, ALBANY, NY USA							Baritz L., 1960, SERVANTS POWER; Baumhart R., 1961, HARVARD BUSINESS JUL, P631; BLOUGH R, 1959, FREE MEN CORPORATION; DAVENPORT R, 1951, FORTUNE MAGAZINE; DAVIS K, 1960, CALIF MANAGE REV, V2, P70, DOI 10.2307/41166246; EELLS R, 1968, BUS AM, P408; ELBING AO, 1967, VALUE ISSUE BUSINESS; ENGLAND GW, 1967, ACADEMY MANAGEME MAR; FRANCIS C, 1948, RESPONSIBILITIES BUS; FREEDMAN R, 1962, ATLANTIC ECONOMI MAY; FRIEDMAN M, 1963, CAPITALISM FREEDOM; Galbraith J. K., 1958, AFFLUENT SOC; GALBRAITH JK, 1964, SCIENCE, V145, P117, DOI 10.1126/science.145.3628.117; Hawley Cameron, 1952, EXECUTIVE SUITE; HEILBRONER R, 1966, COMMENTARY       APR; HODGES L, 1963, BUSINESS CONSCIENCE; HOOK S, 1967, 8 P S NYU I PHIL; KLUCKHOHN C, 1951, TOWARD GENERAL THEOR; KNIGHT FH, 1965, AM BEHAVIORAL SC SEP; Krech D, 1962, INDIVIDUAL SOC; Leighton D. C., 1963, CHARACTER DANGER; Lewis S, 1922, BABBIT; Marquand John P., 1949, POINT NO RETURN; Miller Arthur, 1949, DEATH SALESMAN; MILLER JI, 1959, FEB ADDR DARTM COLL; MOYNIHAN DP, 1967, NY TIMES MAGAZI 0205; OHMANN OH, 1955, HARVARD BUSINESS MAY; PARSONS T, 1951, TOWARD GENERAL THEOR; PURCELL TV, 1967, PERS PSYCHOL, V20, P231, DOI 10.1111/j.1744-6570.1967.tb01522.x; RAS N, 1966, AMERICAS, V18; SCHEIN EH, 1968, INDUSTRIAL MANAG WIN; SERLING R, 1957, PATTERNS; SMITH A, 1887, WEALTH NATIONS; Wakeman Frederic, 1946, HUCKSTERS; Walton C. C., 1967, CORPORATE SOCIAL RES; WARD B, 1966, FAL SPEECH DARTM COL; WHYTE WH, 1956, ORGANIZATION MAN	37	7	7	0	2	ACAD MANAGEMENT	BRIARCLIFF MANOR	PACE UNIV, PO BOX 3020, 235 ELM RD, BRIARCLIFF MANOR, NY 10510-8020 USA	0001-4273			ACAD MANAGE J	Acad. Manage. J.		1970	13	1					79	89		10.2307/254927				11	Business; Management	Business & Economics	F6614	WOS:A1970F661400005					2019-01-18	
J	EVANS, MG				EVANS, MG			LEADERSHIP AND MOTIVATION - CORE CONCEPT	ACADEMY OF MANAGEMENT JOURNAL			English	Article									UNIV TORONTO,SCH BUSINESS,TORONTO,ONTARIO,CANADA							CAMPBELL RN, 1967, THEORY LEADERSHIP EF; EVANS MCW, IN PRESS; FIEDLER FE, 1965, HARVARD BUS REV, V43, P115; FLEISHMAN EA, 1962, PERS PSYCHOL, V15, P43, DOI 10.1111/j.1744-6570.1962.tb01845.x; FLEISHMAN EA, 1955, LEADERSHIP SUPERVISI; GALBRAITH J, 1967, ORGAN BEHAV HUM PERF, V2, P237, DOI 10.1016/0030-5073(67)90020-7; GEORGOPOULOS BS, 1957, J APPL PSYCHOL, V41, P345, DOI 10.1037/h0048473; GRAEN G, 1969, J APPL PSYCHOL, V53, P1, DOI 10.1037/h0027100; Kahn R. L., 1964, ORGANIZATIONAL STRES; LAWLER EE, 1968, J APPL PSYCHOL, V52, P462, DOI 10.1037/h0026499; LAWRENCE PR, 1967, ORGANIZATION INNOVAT; Maslow A. H., 1954, MOTIVATION PERSONALI; MCGREGOR D, 1961, HUMAN SIDE ENTERPRIS; MOSEL JN, 1962, PERSONNEL ADMINISTRA, V25, P9; PELZ DC, 1952, PERSONNEL, V29, P209; PORTER LW, 1968, HARVARD BUS REV, V46, P118; ROTTER JB, 1966, PSYCHOLOGICAL MONOGR, V80; SPITZER ME, 1964, THESIS NEW YORK U; VROOM VH, 1964, WORK MOTIVATION; WOODWARD J, 1965, INDUSTRIAL ORGANIZAT	20	11	13	1	7	ACAD MANAGEMENT	BRIARCLIFF MANOR	PACE UNIV, PO BOX 3020, 235 ELM RD, BRIARCLIFF MANOR, NY 10510-8020	0001-4273			ACAD MANAGE J	Acad. Manage. J.		1970	13	1					91	102		10.2307/254928				12	Business; Management	Business & Economics	F6614	WOS:A1970F661400006					2019-01-18	
J	ROMAN, DD				ROMAN, DD			TECHNOLOGICAL FORECASTING IN DECISION PROCESS	ACADEMY OF MANAGEMENT JOURNAL			English	Article									GEORGE WASHINGTON UNIV,WASHINGTON,DC							BRIGHT JR, 1968, TECHNOLOGICAL FORECA; BRIGHT JR, 1963, AUTOMATION TECH 0509, P9; CETRON M, 1968, NOV NATO DEF RES GRO, P2; Cetron M. J, 1969, TECHNOLOGICAL FORECA; CETRON MJ, 1968, GEORGE WASH LAW REV, V36, P1079; CRAIG WO, 1969, TRANSPORTATION D OCT, P22; HELMER O, 1967, BUSINESS WEEK   0527, P52; HELMER O, 1966, SOCIAL TECHNOLOGY, P56; JANTSCH E, 1967, TECHNOLOGICAL FORECA, P15; QUINN JB, 1967, HARVARD BUSINESS MAR, P101; SINCLAIR PM, 1969, INDUSTRIAL RESEA JAN, P68; 1969, SCIENCE TECHNOLO JAN, P72; 1964, REPORT JOINT ECONOMI, P56; 1964, MANAGEMENT NEW PRODU, P6; 1969, BUSINESS WEEK   1115, P38; 1961, NSF6127 NAT SCIENC F, P7	16	4	4	0	1	ACAD MANAGEMENT	BRIARCLIFF MANOR	PACE UNIV, PO BOX 3020, 235 ELM RD, BRIARCLIFF MANOR, NY 10510-8020	0001-4273			ACAD MANAGE J	Acad. Manage. J.		1970	13	2					127	138		10.2307/255100				12	Business; Management	Business & Economics	G6430	WOS:A1970G643000002					2019-01-18	
J	DROR, Y				DROR, Y			SYSTEMS ANALYSIS AND NATIONAL MODERNIZATION DECISIONS	ACADEMY OF MANAGEMENT JOURNAL			English	Article									RAND CORP,SANTA MONICA,CA							BERRIEN FK, 1968, GENERAL SOCIAL SYSTE; BERTALANFFY LV, 1968, GENERAL SYSTEMS THEO; BLACK G, 1968, APPLICATION SYSTEMS; BUCKLEY W, 1968, MODERN SYSTEMS RESEA; Churchman C. West, 1967, SYSTEMS APPROACH; CLELAND DI, 1968, SYSTEMS ANALYSIS PRO; DROR Y, 1969, CIVILIZATIONS, V19, P209; DROR Y, 1970, MAN SYSTEMS; DROR Y, IN PRESS; Dror Y, 1968, PUBLIC POLICY MAKING; DROR Y, 1967, CIVILIZATIONS, V17, P72; GROSS BM, 1969, PUBLIC ADMINISTRATIO, V19, P152; GROSS BM, 1969, PUBLIC ADMINISTRATIO, V19, P113; Hall A.D., 1962, METHODOLOGY SYSTEMS; HARE VC, 1967, SYSTEMS ANALYSIS DIA; HINRICHS HH, 1969, PROGRAM BUDGETING BE, P119; ILCHMAN WF, 1969, POLITICAL ECONOMY CH; KATZ SM, 1968, PUBLIC ADMIN REV, V28, P530, DOI 10.2307/973330; LASSWELL HD, 1965, WORLD POLIT, V17, P286, DOI 10.2307/2009353; LINDBLOM C, 1966, INTELLIGENCE DEMOCRA; QUADE ES, 1968, SYSTEMS ANALYSIS POL; QUADE ES, 1964, ANALYSIS MILITARY DE; RODERICK BH, 1969, SYSTEMS ANALYSIS EFF; SCHUTZ CL, 1968, POLITICS ECONOMICS P; Vickers G, 1965, THE ART OF JUDGMENT; Vickers G., 1968, VALUE SYSTEMS SOCIAL; WILDAVSKY A, PUBLIC ADMINISTRATIO, V19, P189; WU CY, 1969, MANAGE SCI B-APPL, V15, pB237; 1969, PUBLIC ADMINISTR JAN, P22	29	1	1	0	2	ACAD MANAGEMENT	BRIARCLIFF MANOR	PACE UNIV, PO BOX 3020, 235 ELM RD, BRIARCLIFF MANOR, NY 10510-8020	0001-4273			ACAD MANAGE J	Acad. Manage. J.		1970	13	2					139	152		10.2307/255101				14	Business; Management	Business & Economics	G6430	WOS:A1970G643000003					2019-01-18	
J	AJIFERUKE, M; BODDEWYN, J				AJIFERUKE, M; BODDEWYN, J			CULTURE AND OTHER EXPLANATORY VARIABLES IN COMPARATIVE MANAGEMENT STUDIES	ACADEMY OF MANAGEMENT JOURNAL			English	Article									NYU,NEW YORK,NY							BODDEWYN J, 1969, COMPARATIVE MANAGEME, pCH11; FARMER R, 1964, CALIFORNIA MANAGEMEN, V7, P56; FARMER RN, 1964, CALIF MANAGE REV, V7, P55, DOI 10.2307/41162165; KUZNETS S, 1959, SIX LECTURES ECONOMI, P13; LINTON R, 1945, SCI MAN WORLD CRISIS, P78; NATH R, 1968, INT SOC SCI J, V20, P35; SCHOLLHAMMER H, 1969, ACAD MANAGE J, V12, P81, DOI 10.2307/254675; 1969, 21 U WASH GRAD SCH B	8	37	40	0	3	ACAD MANAGEMENT	BRIARCLIFF MANOR	PACE UNIV, PO BOX 3020, 235 ELM RD, BRIARCLIFF MANOR, NY 10510-8020	0001-4273			ACAD MANAGE J	Acad. Manage. J.		1970	13	2					153	163		10.2307/255102				11	Business; Management	Business & Economics	G6430	WOS:A1970G643000004					2019-01-18	
J	UNTERMAN, I				UNTERMAN, I			SOME ASPECTS OF PROJECT ON EDUCATION IN BUSINESS ADMINISTRATION FOR NEGROS	ACADEMY OF MANAGEMENT JOURNAL			English	Article																BOLAND W, UNPUBLISHED; CROSS T. L., 1969, BLACK CAPITALISM; Foley Eugene, 1968, ACHIEVING GHETTO; KIRCHHEIMER J, UNPUBLISHED; MASON A, 1969, BLACK CAPITALISM RHE; STEINHARDT I, 1969, 13G43PR7P HARV BUS S; UNTERMAN I, UNPUBLISHED; UNTERMAN I, 1969, BLACK CAPITALISM CAN; *US RIOT COMM, 1968, REPORT NATIONAL ADV; 1969, SURVEY BUSINESS OWNE	10	1	1	0	1	ACAD MANAGEMENT	BRIARCLIFF MANOR	PACE UNIV, PO BOX 3020, 235 ELM RD, BRIARCLIFF MANOR, NY 10510-8020	0001-4273			ACAD MANAGE J	Acad. Manage. J.		1970	13	2					165	178		10.2307/255103				14	Business; Management	Business & Economics	G6430	WOS:A1970G643000005					2019-01-18	
J	SENGER, J				SENGER, J			RELIGIOUS MANAGER	ACADEMY OF MANAGEMENT JOURNAL			English	Article									USN,POSTGRAD SCH,SAN DIEGO,CA							BAUMHART R, 1961, HARVARD BUS REV, V39, P6; Childs M. W., 1954, ETHICS BUSINESS SOC; ELBING AO, 1967, VALUE ISSUE BUSINESS; Golembiewski Robert T., 1965, MEN MANAGEMENT MORAL; Johnson H. L., 1957, HARVARD BUS REV, V35, P68; JONES MH, 1962, EXECUTIVE DECISION M, P14; Ohmann OA, 1955, HARVARD BUS REV, V33, P33; OSGOOD CE, 1957, MEASUREMENT MEANING, P52; PURCELL TV, 1967, PERS PSYCHOL, V20, P231, DOI 10.1111/j.1744-6570.1967.tb01522.x; SENGER JD, 1965, THESIS U ILLINOIS; Spranger E., 1928, TYPES MEN; TUCKER L, 1965, EXPT MULTIMODE FACTO; WARNER WL, 1949, SOC CLASS AM, P140; Weber M., 1958, PROTESTANT ETHIC SPI	14	9	9	0	2	ACAD MANAGEMENT	BRIARCLIFF MANOR	PACE UNIV, PO BOX 3020, 235 ELM RD, BRIARCLIFF MANOR, NY 10510-8020	0001-4273			ACAD MANAGE J	Acad. Manage. J.		1970	13	2					179	186		10.2307/255104				8	Business; Management	Business & Economics	G6430	WOS:A1970G643000006					2019-01-18	
J	CARROLL, SJ; NASH, AN				CARROLL, SJ; NASH, AN			SOME PERSONAL AND SITUATIONAL CORRELATES OF REACTIONS TO MANAGEMENT DEVELOPMENT TRAINING	ACADEMY OF MANAGEMENT JOURNAL			English	Article									UNIV MARYLAND,COLLEGE PK,MD							FLEISHMAN EA, 1955, 33 OH STAT U BUR ED; HARITON T, 1951, THESIS U MICHIGAN; HOUSE RJ, 1963, ACAD MANAGE J, V6, P303, DOI 10.2307/255156; HOUSE RJ, 1963, HARVARD BUS REV, V41, P130; HOUSE RJ, 1967, MANAGEMENT DEVELOPME; KOHN V, 1968, ASSESSMENT PARTICIPA; MINER JB, 1965, STUDIES MANAGEMENT E; SKYES AJM, 1962, HUMAN RELATIONS, V15, P227	8	1	1	0	1	ACAD MANAGEMENT	BRIARCLIFF MANOR	PACE UNIV, PO BOX 3020, 235 ELM RD, BRIARCLIFF MANOR, NY 10510-8020	0001-4273			ACAD MANAGE J	Acad. Manage. J.		1970	13	2					187	196		10.2307/255105				10	Business; Management	Business & Economics	G6430	WOS:A1970G643000007					2019-01-18	
J	HUNT, RG				HUNT, RG			TECHNOLOGY AND ORGANIZATION	ACADEMY OF MANAGEMENT JOURNAL			English	Article									SUNY, BUFFALO, NY USA							ANTHONY RN, 1965, PLANNING CONTROL SYS; Bell G, 1967, AM J SOCIOL, V73, P90; BIAUNER R, 1964, ALIENATION FREEDOM; BLAU PM, 1962, FORMAL ORGANIZATIONS; Burns T, 1961, MANAGEMENT INNOVATIO; CYERT RM, 1964, NEW PERSPECT ORGAN, P558; DUBIN R, 1958, WORLD WORK; Fiedler F. E., 1967, THEORY LEADERSHIP EF; Goffman E., 1961, ASYLUMS; HARVEY E, 1968, AM SOCIOL REV, V33, P247, DOI 10.2307/2092391; HICKSON DJ, 1969, ADMIN SCI QUART, V14, P378, DOI 10.2307/2391134; HUNT RG, 1968, ADMIN SCI QUART, V13, P360, DOI 10.2307/2391466; KATZ D, 1968, ADMINISTRATIVE SCIEN, V13, P65; KATZ D, 1966, SOCIAL PSYCHOLOGY OR; Mead M., 1955, CULTURAL PATTERNS TE; MILLER EJ, 1967, SYSTEMS ORGANIZATION; Miller G. A., 1960, PLANS STRUCTURE BEHA; MOUZELIS NP, 1967, ORGANIZATION BUREAUC; OLSEN ME, 1968, PROCESS SOCIAL ORGAN; Parsons T., 1960, STRUCTURE PROCESS MO; Perrow C., 1967, AM SOCIOL REV, V32, P195; PERROW CA, 1970, WORKING PAPER TECHNO; PERROW CA, 1967, 1 WORLD C INT IND RE; PUGH DS, 1969, ORGANIZATIONAL BEHAV; SCOTT WR, 1964, HDB MODERN SOCIOLOGY, P485; Stinchcombe A.L., 1965, HDB ORG, P142; THOMPSON JD, 1957, ADMIN SCI QUART, V2, P325, DOI 10.2307/2391002; THOMPSON JD, 1967, ORGANIZATIONS ACTION; THOMPSON VA, 1961, MODERN ORGANIZATION; TOYNBEE A, 1956, INDUSTRIAL REVOLUTIO; WHYTE WF, 1965, TRANSACTION, P31; WOODWARD J, 1965, INDUSTRIAL ORGANIZAT	32	41	40	0	2	ACAD MANAGEMENT	BRIARCLIFF MANOR	PACE UNIV, PO BOX 3020, 235 ELM RD, BRIARCLIFF MANOR, NY 10510-8020 USA	0001-4273			ACAD MANAGE J	Acad. Manage. J.		1970	13	3					235	252		10.2307/254962				18	Business; Management	Business & Economics	H3656	WOS:A1970H365600001					2019-01-18	
J	MITCHELL, TR; BIGLAN, A; ONCKEN, GR; FIEDLER, FE				MITCHELL, TR; BIGLAN, A; ONCKEN, GR; FIEDLER, FE			CONTINGENCY MODEL - CRITICISM AND SUGGESTIONS	ACADEMY OF MANAGEMENT JOURNAL			English	Article									UNIV WASHINGTON,DEPT PSYCHOL,ORG RES GRP,SEATTLE,WA							BIERI J, 1961, FUNCT VARIED EXPER, P355; BISHOP DW, 1964, RELATIONS BETWEEN TA; CHEMERS MM, 1968, 716816 GROUP EFF RES; FIEDLER F, IN PRESS; Fiedler F. E., 1967, THEORY LEADERSHIP EF; FIEDLER FE, 1964, ADV EXP SOC PSYCHOL, V1, P149, DOI 10.1016/S0065-2601(08)60051-9; FIEDLER FE, 1966, J EXP SOC PSYCHOL, V2, P237, DOI 10.1016/0022-1031(66)90082-5; FIEDLER FE, 1967, 46672 GROUP EFF RES; FOA UG, IN PRESS; GIBB C, 1954, HDB SOCIAL PSYCHOLOG, V2; GRAEN G, IN PRESS; HUNT, IN PRESS; HUNT JG, 1967, ORGAN BEHAV HUM PERF, V2, P290, DOI 10.1016/0030-5073(67)90023-2; MITCHELL TN, IN PRESS; MITCHELL TR, 1970, J SOC PSYCHOL, V80, P89, DOI 10.1080/00224545.1970.9712523; MITCHELL TR, 1969, THESIS U ILLINOIS; OBRIEN GE, 1969, AUST J PSYCHOL, V21, P277, DOI 10.1080/00049536908257796; OESER OA, 1964, HUM RELAT, V17, P3, DOI 10.1177/001872676401700101; OESER OA, 1967, HUM RELAT, V20, P83, DOI 10.1177/001872676702000107; OESER OA, 1962, HUM RELAT, V15, P89, DOI 10.1177/001872676201500201; POSTHUMA A, 708 ORG RES TECHN RE; Scott W. A., 1963, MOTIVATION SOCIAL IN, P266; SCOTT WA, 1962, SOCIOMETRY, V25, P405, DOI 10.2307/2785779; SHAW ME, 1963, SCALING GROUP TASKS; SKRZYPEK GJ, 1969, 34 US MIL AC TECHN R; STEINER ID, 1959, INTERPERSONAL ORIENT; Stogdill RM, 1948, J PSYCHOL, V25, P35, DOI 10.1080/00223980.1948.9917362; VROOM VH, 1960, PERS PSYCHOL, V13, P125; WEARING A, 1967, 21 GROUP EFF LAB TEC	29	30	30	0	5	ACAD MANAGEMENT	BRIARCLIFF MANOR	PACE UNIV, PO BOX 3020, 235 ELM RD, BRIARCLIFF MANOR, NY 10510-8020	0001-4273			ACAD MANAGE J	Acad. Manage. J.		1970	13	3					253	267		10.2307/254963				15	Business; Management	Business & Economics	H3656	WOS:A1970H365600002					2019-01-18	
J	WILEMON, DL; CICERO, JP				WILEMON, DL; CICERO, JP			PROJECT MANAGER - ANOMALIES AND AMBIGUITIES	ACADEMY OF MANAGEMENT JOURNAL			English	Article									ROCHESTER INST TECHNOL COLL BUSINESS,ROCHESTER,NY; SYRACUSE UNIV,COLL BUSINESS ADM,SYRACUSE,NY							AVOTS I, 1969, CALIFORNIA MANAG FAL, P79; BLAU PM, 1962, FORMAL ORGANIZATIONS, P8; CICERO JP, 1969, 6223WP25 NASA RES PR; CLELAND DI, 1967, MANAGE, V19; CONRATH DW, 1968, IEEE T ENGINEERI SEP, P111; FISCH GG, 1961, HARVARD BUSINESS SEP, P67; GADDIS PO, 1959, HARVARD BUSINESS MAY, P89; JANGER AR, 1963, BUSINESS MANAGEMENT, P12; JASINSKI FJ, 1959, HARVARD BUSINESS JAN, P79; KAHN RL, 1964, ORGANISATIONAL STRES, P101; LAPORTE TR, 1965, ADMIN SCI QUART, V10, P21; MEE JF, 1963, BUSINESS HORIZON FAL, P53; PELZ D, 1966, SCIENTISTS ORGANIZAT, P108; REESER C, 1969, ACAD MANAGE J    DEC, P459; RUBIN IW, 1967, IEEE T ENGINEERING M, P131; STEWART JM, 1965, BUSINESS HORIZONS, P54; THOMPSON RE, 1964, BUSINESS HORIZON SUM, P49; WEBB JE, 1969, SPACE AGE MANAGEMENT, P136	18	20	20	2	6	ACAD MANAGEMENT	BRIARCLIFF MANOR	PACE UNIV, PO BOX 3020, 235 ELM RD, BRIARCLIFF MANOR, NY 10510-8020	0001-4273			ACAD MANAGE J	Acad. Manage. J.		1970	13	3					269	282		10.2307/254964				14	Business; Management	Business & Economics	H3656	WOS:A1970H365600003					2019-01-18	
J	DYER, JS				DYER, JS			USE OF PPBS IN A PUBLIC SYSTEM OF HIGHER EDUCATION - IS IT COST-EFFECTIVE	ACADEMY OF MANAGEMENT JOURNAL			English	Article									RAND CORP,SANTA MONICA,CA; UNIV CALIF,LOS ANGELES,CA							DYER JS, 1969, 6947 U TEX GRAD SCH; DYER JS, 1969, THESIS U TEXAS; HAGGART SA, 1969, PROGRAM BUDGETING SC; HAMELMAN PH, 32 NAT M OP RES SOC; HARTLEY HJ, 1968, EDUCATIONAL PLANNING; Novick D., 1965, PROGRAM BUDGETING PR; SHAPERO A, 1967, PLANNING PROGRAMMING, P4	7	3	3	0	1	ACAD MANAGEMENT	BRIARCLIFF MANOR	PACE UNIV, PO BOX 3020, 235 ELM RD, BRIARCLIFF MANOR, NY 10510-8020	0001-4273			ACAD MANAGE J	Acad. Manage. J.		1970	13	3					285	299		10.2307/254965				15	Business; Management	Business & Economics	H3656	WOS:A1970H365600004					2019-01-18	
J	HOPFE, MW				HOPFE, MW			LEADERSHIP STYLE AND EFFECTIVENESS OF DEPARTMENT CHAIRMEN IN BUSINESS ADMINISTRATION	ACADEMY OF MANAGEMENT JOURNAL			English	Article									SACRAMENTO STATE COLL,SACRAMENTO,CA							BENNIS WG, 1966, CHANGING ORGANIZATIO, P128; BENNIS WG, 1959, ADMINISTRATIVE SCIEN, P259; Blake R. R., 1964, MANAGERIAL GRID; BRAYFIELD AH, 1955, PSYCHOL BULL, V52, P396, DOI 10.1037/h0045899; FIEDLER, 1964, ADV EXPTL SOCIAL PSY, P162; Fiedler F. E., 1967, THEORY LEADERSHIP EF; FIEDLER FE, 1969, PSYCHOLOGY TODAY MAR, P42; FILLEY AC, 1969, MANAGERIAL PROCESS O, P416; GUBA EG, 1958, ADMIN SCI QUART, V3, P195, DOI 10.2307/2391017; HAIRE M, 1959, PSYCHOL BULL, V56, P169, DOI 10.1037/h0041259; HEMPHILL JK, 1955, J EDUCATIONAL PSYCHO, V46, P388; HERSEY P, 1969, MANAGEMENT ORGANIZAT; Herzberg F., 1957, JOB ATTITUDES REV RE; HILL W, 1969, ACADEMY MANAGEME MAR, P34; HUNT JG, 1966, THESIS U ILLINOIS; ROSECRANCE FC, 1962, AM COLLEGE ITS TEACH; SANFORD N, 1962, AM COLLEGE; SHAW ME, 1963, 1 U FLOR TECH REP	18	3	3	0	4	ACAD MANAGEMENT	BRIARCLIFF MANOR	PACE UNIV, PO BOX 3020, 235 ELM RD, BRIARCLIFF MANOR, NY 10510-8020	0001-4273			ACAD MANAGE J	Acad. Manage. J.		1970	13	3					301	310		10.2307/254966				10	Business; Management	Business & Economics	H3656	WOS:A1970H365600005					2019-01-18	
J	KAST, FE; ROSENZWEIG, JE; STOCKMAN, JW				KAST, FE; ROSENZWEIG, JE; STOCKMAN, JW			INTERDISIPLINARY PROGRAMS IN A UNIVERSITY SETTING	ACADEMY OF MANAGEMENT JOURNAL			English	Article									SACRAMENTO STATE COLL,SACRAMENTO,CA; UNIV WASHINGTON,SEATTLE,WA							CLELAND DI, 1968, SYSTEMS ANALYSIS PRO, P160; HOPEMAN RJ, 1969, 2 SYR U OCC PAP; LAWRENCE PR, 1967, ORGANIZATION ENVIRON, P47; Likert Rensis, 1961, NEW PATTERNS MANAGE, P113; LUNSFORD TF, 1968, AM BEHAVIORAL SC MAY, P5; LUSZKI MB, 1958, INTERDISCIPLINARY TE, P10; MILLETT JD, 1962, ACADEMIC COMMUNITY E; Rourke Francis, 1966, MANAGERIAL REVOLUTIO; Thompson J., 1967, ORGAN ACTION, p[54, 70, 128]; 1969, FEDERAL SUPPORT UNIV, P4; 1968, STUDY NASA U PROGRAM, P1	11	9	9	0	2	ACAD MANAGEMENT	BRIARCLIFF MANOR	PACE UNIV, PO BOX 3020, 235 ELM RD, BRIARCLIFF MANOR, NY 10510-8020	0001-4273			ACAD MANAGE J	Acad. Manage. J.		1970	13	3					311	324		10.2307/254967				14	Business; Management	Business & Economics	H3656	WOS:A1970H365600006					2019-01-18	
J	SHUSTER, LJ				SHUSTER, LJ			MOBILITY AMONG BUSINESS FACULTY	ACADEMY OF MANAGEMENT JOURNAL			English	Article									CALIF STATE COLL,BAKERSFIELD,CA							BALYEAT RE, 1968, AFFECTING ACQUISITIO; BERELSON B, 1960, GRADUATE EDUCATION U; BROWN DG, 1967, MOBILE PROFESSORS, P25; CARTTER AM, 1965, EDUCATIONAL RECO SPR, P119; CHASE J, 1964, J HIGHER EDUCATI MAR, P138; FORSGREN R, 1969, ACADEMY MANAGEME MAR, P105; LADINSKY J, 1967, AM SOCIOLOGICAL  APR, P253; MARSHALL HD, 1963, REV ECONOMICS ST AUG, P330; MAUL R, 1965, EDUCATIONAL RECO SUM, P259; PECENKA JO, 1960, COLLEGIATE NEW V DEC, P1; PORTER R, 1965, REV ECONOMICS ST MAY, P191; ROGERS JF, 1967, STAFFING AM COLLEGES; WADE L, 1967, HUM ORGAN, P40	13	1	1	0	3	ACAD MANAGEMENT	BRIARCLIFF MANOR	PACE UNIV, PO BOX 3020, 235 ELM RD, BRIARCLIFF MANOR, NY 10510-8020	0001-4273			ACAD MANAGE J	Acad. Manage. J.		1970	13	3					325	335		10.2307/254968				11	Business; Management	Business & Economics	H3656	WOS:A1970H365600007					2019-01-18	
J	DUNCAN, WJ				DUNCAN, WJ			METHODOLOGICAL ORIENTATIONS AND MANAGEMENT THEORY - ANALYSIS OF ACADEMIC OPINION	ACADEMY OF MANAGEMENT JOURNAL			English	Article									SAMFORD UNIV,BIRMINGHAM,AL							BARTLETT AC, MANAGEMENT CURRICULA, P3; BIRDWELL AE, 1968, J BUS, V41, P76, DOI 10.1086/295047; DALE E, 1960, GREAT ORGANIZERS, P7; DODD SC, 1966, AM BEHAVIORAL SCIENT, V9, P38; FORSGREN RA, 1969, ACADEMY MANAGEMENT J, V12, P114; GANTT HL, 1913, WORK WAGES PROFITS, P67; HAYEK FA, 1942, ECONOMICA, V9, P269; HICKS HG, 1967, ACAD MANAGE J, V10, P371, DOI 10.2307/255270; HOUSE RJ, 1966, MANAGEMENT INT REV, V6, P97; KAPLAN A, 1964, CONDUCT INQUIRY, P18; LIKERT R, 1948, AM PSYCHOLOGIST, V3, P557; MASLOW AH, 1954, MOTIVATION PERSONALI, P62; MAYNTZ R, 1964, CURRENT SOCIOLOGY, V13, P96; MCEWEN WP, 1963, PROBLEM SOCIAL SCIEN, P55; Osgood C.E., 1957, MEASUREMENT MEANING; PETHIA RF, 1969, AUG P AC MAN, P145; ROETHLISBERGER FJ, 1964, TOWARD UNIFIED THEOR, P41; SHELDON O, 1930, PHILOSOPHY MANAGEMEN, pR11; SIMON H, 1957, ADM BEHAVIOR, P45; TAYLOR FW, 1923, PRINCIPLES SCIENTIFI, P12; WADIA MS, 1961, ADV MANAGEMENT J, V26, P9; WEBER M, 1949, M WEBER METHODOLOGY, P115; WEBER M, 1963, PHILOSOPHY SOCIAL SC, P358; 1968, DELTA SIGMA PI	24	3	3	0	1	ACAD MANAGEMENT	BRIARCLIFF MANOR	PACE UNIV, PO BOX 3020, 235 ELM RD, BRIARCLIFF MANOR, NY 10510-8020	0001-4273			ACAD MANAGE J	Acad. Manage. J.		1970	13	3					337	348		10.2307/254969				12	Business; Management	Business & Economics	H3656	WOS:A1970H365600008					2019-01-18	
J	DONOVAN, JL				DONOVAN, JL			IN DEFENSE OF SUBJECTIVE EXECUTIVE APPRAISAL - COMMENT	ACADEMY OF MANAGEMENT JOURNAL			English	Article									GILLETTE CO,TOILETRIES DIV,BOSTON,MA							CHUNG KH, 1969, ACAD MANAGE J, V12, P507, DOI 10.2307/254742; DRUCKER PF, 1954, PRACTICE MANAGEMENT, P157; LABOVITZ GH, 1969, ACAD MANAGE J, V12, P293, DOI 10.2307/255177; URWICK L, 1969, ACAD MANAGE J, V12, P497, DOI 10.2307/254738	4	0	0	0	1	ACAD MANAGEMENT	BRIARCLIFF MANOR	PACE UNIV, PO BOX 3020, 235 ELM RD, BRIARCLIFF MANOR, NY 10510-8020	0001-4273			ACAD MANAGE J	Acad. Manage. J.		1970	13	3					351	353		10.2307/254970				3	Business; Management	Business & Economics	H3656	WOS:A1970H365600009					2019-01-18	
J	URWICK, LF				URWICK, LF			PAPERS IN SCIENCE OF ADMINISTRATION	ACADEMY OF MANAGEMENT JOURNAL			English	Article																BARNARD C, 1938, FUNCT EXECUTIVE, P82; BENNIS WG, 1969, TEMPORARY SOC, P109; DRUCKER PF, 1969, AGE DISCONTINUITY, P343; FAYOL H, 1949, ADMINISTRATION INDUS; FAYOL H, 1929, ADMINISTRATION INDUS; FORD H, 1919, CHICAGO TRIBUNE  JUL; GILBRETH L, 1914, PSYCHOLOGY MANAGEMEN; GILBRETH LM, 1953, WRITINGS GILBRETHS; HALDANE JBS, 1928, POSSIBLE WORLDS, P182; KOONTZ H, 1964, TOWARDS UNIFIED THEO, P80; KOONTZ H, 1964, HARVARD BUSINESS REV, V40; MARCH J, 1958, ORGANIZATIONS, P1; MUNSTERBERG H, 1913, PSYCHOLOGY INDUSTRIA; ORTEGA J, 1946, MISSION U, P62; PFIFFNER JM, 1960, ADMINISTRATIVE ORGAN, P462; POPE A, ESSAY CRITICISM    2, P237; SNOJANEN WO, 1966, DYNAMICS MANAGEMENT; *UK BRIT ASS ADV S, 1923, 91 M REP, P238; URWICK L, 1937, PAPERS SCIENCE ADMIN; URWICK LF, 1945, MAKING SCIENTIFIC MA, P155	20	0	0	0	1	ACAD MANAGEMENT	BRIARCLIFF MANOR	PACE UNIV, PO BOX 3020, 235 ELM RD, BRIARCLIFF MANOR, NY 10510-8020	0001-4273			ACAD MANAGE J	Acad. Manage. J.		1970	13	4					361	371		10.2307/254827				11	Business; Management	Business & Economics	I2746	WOS:A1970I274600001					2019-01-18	
J	DELBECQ, AL; ELFNER, ES				DELBECQ, AL; ELFNER, ES			LOCAL-COSMOPOLITAN ORIENTATIONS AND CAREER STRATEGIES FOR SPECIALISTS	ACADEMY OF MANAGEMENT JOURNAL			English	Article									UNIV WISCONSIN,GRAD SCH BUSINESS,MADISON,WI; UNIV WISCONSIN,SCH BUSINESS,MADISON,WI							BATES FL, 1967, STRUCTURE OCCUPATION; CARLSON RO, 1961, ADMINISTRATIVE SCIEN, V7, P200; FLORO GK, 1954, PUBLIC MANAGEMENT, V26, P221; GEORGOPOULOS BS, 1957, J APPL PSYCHOL, V41, P345, DOI 10.1037/h0048473; GLASER BG, 1963, AM J SOCIOL, V69, P249, DOI 10.1086/223583; GOLDBERG LC, 1965, AM J SOCIOL, V70, P704, DOI 10.1086/223964; GOULDNER AW, 1958, ADMIN SCI QUART, V2, P444, DOI 10.2307/2390795; GOULDNER AW, 1957, ADMIN SCI QUART, V2, P281, DOI 10.2307/2391000; Guest RH, 1954, AM SOCIOL REV, V19, P155, DOI 10.2307/2088397; LAWLER EE, 1967, INDUSTRIAL RELATIONS, V7, P52; MARCSON S, 1961, RES MANAGE, V4, P271; MARTIN NH, 1956, J BUS, V29, P101, DOI 10.1086/294100; MILLER DC, 1964, HDB RESEARCH DESIGN; MOORE WE, 1954, INDUSTRIAL CONFLICT; NATIELLO TA, 1968, BUSINESS TOPICS, V16, P57; PELZ DC, 1966, SCIENTISTS ORGANIZAT; REHM TA, 1968, 63 ANN M AM SOC ASSO, V63, P156; Reiss AJ, 1955, AM SOCIOL REV, V20, P693, DOI 10.2307/2088676; THOMPSON JD, 1968, EDUC ADMIN QUART, V4, P6, DOI 10.1177/0013161X6800400102; Warner William Lloyd, 1955, OCCUPATIONAL MOBILIT; WILENSKY HL, 1961, AM SOCIOL REV, V26, P521, DOI 10.2307/2090251	21	12	12	2	3	ACAD MANAGEMENT	BRIARCLIFF MANOR	PACE UNIV, PO BOX 3020, 235 ELM RD, BRIARCLIFF MANOR, NY 10510-8020	0001-4273			ACAD MANAGE J	Acad. Manage. J.		1970	13	4					373	387		10.2307/254828				15	Business; Management	Business & Economics	I2746	WOS:A1970I274600002					2019-01-18	
J	SHRODE, WA; BROWN, WB				SHRODE, WA; BROWN, WB			STUDY OF OPTIMALITY IN RECURRENT DECISION-MAKING OF LOWER-LEVEL MANAGERS	ACADEMY OF MANAGEMENT JOURNAL			English	Article									FLORIDA STATE UNIV,TALLAHASSEE,FL; UNIV OREGON,DEPT PERSONNEL & IND MANAGEMENT,EUGENE,OR							BEER S, 1968, MANAGEMENT SCIENCE B, P9; Burns T, 1954, HUM RELAT, V7, P73, DOI 10.1177/001872675400700104; Carlson S., 1951, EXECUTIVE BEHAVIOR; DRUCKER PF, 1966, EFFECTIVE EXECUTIVE, P25; GIESEL JM, 1968, J INDUSTRIAL ENGINEE, V19, P175; HAAS JA, 1969, PERS PSYCHOL, V22, P61, DOI 10.1111/j.1744-6570.1969.tb02057.x; Home J. H., 1965, J MANAGE STUD, V2, P14; MARTIN NH, 1956, J BUS, V29, P249, DOI 10.1086/294120; MORRIS WT, 1964, ANALYSIS MANAGEMENT, P471; RAY HW, 1963, THESIS OHIO STATE U, P10; RUBIN IM, 1965, IEEE T ENGINEERING M, VEM12, P70; SAYLES L, 1964, MANAGERIAL BEHAVIOR, P253; SCHOELLER VD, 1968, J IND ENGINEERING, V19, pR11; SHRODE WA, 1969, THESIS U OREGON; SHRODE WA, TO BE PUBLISHED; SIMON, 1958, ORGANIZATIONS; SPRAY SL, 1962, THESIS U OREGON, P39; STOGDILL RM, 1955, METHODS STUDY ADMINI; TAYLOR DW, 1965, HDB ORGANIZATIONS, P48	19	0	0	0	3	ACAD MANAGEMENT	BRIARCLIFF MANOR	PACE UNIV, PO BOX 3020, 235 ELM RD, BRIARCLIFF MANOR, NY 10510-8020	0001-4273			ACAD MANAGE J	Acad. Manage. J.		1970	13	4					389	401		10.2307/254829				13	Business; Management	Business & Economics	I2746	WOS:A1970I274600003					2019-01-18	
J	HAND, HH; SLOCUM, JW				HAND, HH; SLOCUM, JW			HUMAN RELATIONS TRAINING FOR MIDDLE MANAGEMENT - FIELD EXPERIMENT	ACADEMY OF MANAGEMENT JOURNAL			English	Article									INDIANA UNIV,BLOOMINGTON,IN; PENN STATE UNIV,PHILADELPHIA,PA							Andrews K., 1966, EFFECTIVENESS U MANA; ARGYRIS C, 1964, HARVARD BUSINESS REV, V42, P3; BAKKE E, 1954, ORGANIZATIONAL STRUC, P4; BERELSON B, 1964, HUMAN BEHAVIOR; BERGER EM, 1952, J ABNORM SOC PSYCH, V47, P778, DOI 10.1037/h0061311; BLAKE RR, 1966, ADV MANAGEMENT J JUL, P31; BLAKE RR, 1964, HARVARD BUSINESS REV, P133; BLOCKER CE, 1955, J ASTD           MAY; BROWN DS, 1966, TRAIN DEV J, V20, P21; CAMPBELL J, 1968, PSYCHOLOGICAL B, V20, P73; CAMPBELL JP, 1970, MANAGERIAL BEHAVIOR; CARRON TJ, 1964, PERS PSYCHOL, V17, P403, DOI 10.1111/j.1744-6570.1964.tb00076.x; Coch L, 1948, HUMAN RELATIONS, V1; COSTELLO TW, 1963, PSYCHOLOGY ADMINISTR, P341; DAVIS K, 1967, HUMAN RELATIONS WORK, P143; FLEISHMAN EA, 1955, LEADERSHIP SUPERVISI, P110; FRENCH W, 1964, PERSONNEL MANAGEMENT, P218; GOODACRE DM, 1957, PERSONNEL        MAY, P4; HAIRE M, 1964, PSYCHOLOGY MANAGEMEN; Haire M, 1948, J SOC ISSUES, V4, P41; HANDYSIDE J, 1956, PERSONNEL MANAGEMENT, V38, P96; HAYES J, 1956, J AM SOC TRAINING DI, V10, P24; HOUSE R, 1963, J ACADEMY MANAGEMENT, V6, P303; HOVLAND CI, 1936, P NATIONAL ACADEMY S, P22; HULL CL, 1943, PRINCIPLES BEHAVIOR; KIRKPATRICK DL, 1967, MANUAL SUPERVISORY I; KNOWLES WH, 1958, CALIFORNIA MANAGEMEN, V1; LEWIN K, 1939, J SOCIAL PSYCHOLOGY, V10; Lewin K, 1947, HUM RELAT, V1, P5, DOI 10.1177/001872674700100103; LIKERT R, 1967, HUMAN ORGANIZATION; MACKINNEY AC, 1957, PERSONNEL, V34, P72; Maier NRF, 1953, HUM RELAT, V6, P161, DOI 10.1177/001872675300600204; Maslow A. H., 1954, MOTIVATION PERSONALI; MCGEHEE W, 1961, TRAINING BUSINESS IN; MCLEMORE SD, 1965, MANAGEMENT TRAINING; MOSEL N, 1957, PERSONNEL, V34, P56; ODIORNE G, 1965, TRAINING DIRECTORS J, V19, P3; Odiorne G. S., 1963, TRAIN DIRECTORS J, V17, P9; Roethlisberger F. J., 1954, TRAINING HUMAN RELAT; Rogers C., 1951, CLIENT CENTERED THER; SCHEIN EH, 1963, CALIF MANAGE REV, V5, P23, DOI 10.2307/41165544; SCOTT WG, 1962, HUMAN RELATIONS ACTI; SHAW ME, 1967, SCALES MEASUREMENT A; STROUD PV, 1959, PERSONNEL        NOV; Sullivan H. S., 1953, INTERPERSONAL THEORY; THORNDIKE EL, 1933, SCIENCE, V77; WHITE JC, 1963, PERSONNEL J      DEC, P570	47	9	9	0	2	ACAD MANAGEMENT	BRIARCLIFF MANOR	PACE UNIV, PO BOX 3020, 235 ELM RD, BRIARCLIFF MANOR, NY 10510-8020	0001-4273			ACAD MANAGE J	Acad. Manage. J.		1970	13	4					403	410		10.2307/254830				8	Business; Management	Business & Economics	I2746	WOS:A1970I274600004					2019-01-18	
J	GIBSON, JL; KLEIN, SM				GIBSON, JL; KLEIN, SM			EMPLOYEE ATTITUDES AS A FUNCTION OF AGE AND LENGTH OF SERVICE - RECONCEPTUALIZATION	ACADEMY OF MANAGEMENT JOURNAL			English	Article									UNIV KENTUCKY,DEPT BUSINESS ADM,LEXINGTON,KY; UNIV KENTUCKY,DEPT PSYCHOL,LEXINGTON,KY							Bernberg RE, 1954, PERS PSYCHOL, V7, P395; DAVIES D. R., 1968, P217; HERZBERG F, 1957, JOB ATTITUDES REV RE, P5; HULIN CL, 1965, J APPL PSYCHOL, V49, P209, DOI 10.1037/h0022164; KLEIN SM, 1969, JOB ATTITUDES MANUFA; SALEH SD, 1964, PERS PSYCHOL, V17, P425, DOI 10.1111/j.1744-6570.1964.tb00077.x; SALEH SD, 1969, EXPTL PUBLICATION SY, V1; SHAIE KW, 1968, HUMAN AGING BEHAVIOR, P281	8	71	71	0	8	ACAD MANAGEMENT	BRIARCLIFF MANOR	PACE UNIV, PO BOX 3020, 235 ELM RD, BRIARCLIFF MANOR, NY 10510-8020	0001-4273			ACAD MANAGE J	Acad. Manage. J.		1970	13	4					411	425		10.2307/254831				15	Business; Management	Business & Economics	I2746	WOS:A1970I274600005					2019-01-18	
J	IVANCEVICH, JM				IVANCEVICH, JM			ANALYSIS OF CONTROL, BASES OF CONTROL, AND SATISFACTION IN AN ORGANIZATIONAL SETTING	ACADEMY OF MANAGEMENT JOURNAL			English	Article									UNIV KENTUCKY,LEXINGTON,KY							ALDERFER CP, 1969, ORGAN BEHAV HUM PERF, V4, P142, DOI 10.1016/0030-5073(69)90004-X; BACHMAN JG, 1966, J PERS SOC PSYCHOL, V4, P127, DOI 10.1037/h0023615; BOWERS DG, 1964, SOCIOMETRY, V27, P230, DOI 10.2307/2785719; ELSALMI AM, 1968, PERS PSYCHOL, V21, P465, DOI 10.1111/j.1744-6570.1968.tb02046.x; ELSALMI AM, 1968, PSYCHOLOGICAL B, V70, P127; FRENCH JPR, 1960, GROUP DYNAMICS, P607; HALL DT, 1968, ORGANIZATIONAL BEHAV, V3, P13; KATZ D, 1966, SOCIAL PSYCHOLOGY OR, P301; LIKERT RL, 1961, NEW PATTERNS MANAGEM, P104; Maslow A. H., 1954, MOTIVATION PERSONALI; Maslow AH, 1943, PSYCHOL REV, V50, P370, DOI 10.1037/h0054346; SMITH CG, 1963, HUM RELAT, V16, P299, DOI 10.1177/001872676301600401; STUDENT KR, 1968, J APPL PSYCHOL, V52, P188, DOI 10.1037/h0025886; TANNENBAUM AS, 1961, AM J SOCIOL, V67, P33, DOI 10.1086/223048; TANNENBAUM AS, 1964, J ABNORM SOC PSYCH, V69, P401, DOI 10.1037/h0041238; TANNENBAUM AS, 1962, ADMIN SCI QUART, V7, P236, DOI 10.2307/2390857; TANNENBAUM AS, 1968, CONTROL ORGANIZATION, P5	17	16	16	0	4	ACAD MANAGEMENT	BRIARCLIFF MANOR	PACE UNIV, PO BOX 3020, 235 ELM RD, BRIARCLIFF MANOR, NY 10510-8020	0001-4273			ACAD MANAGE J	Acad. Manage. J.		1970	13	4					427	436		10.2307/254832				10	Business; Management	Business & Economics	I2746	WOS:A1970I274600006					2019-01-18	
J	DALE, E				DALE, E			PLEA FOR COALITION OF QUANTIFIABLE AND NON-QUANTIFIABLE APPROACHES TO MANAGEMENT	ACADEMY OF MANAGEMENT JOURNAL			English	Article									UNIV PENNSYLVANIA,WHARTON SCH FINANCE & COMMERCE,PHILADELPHIA,PA								0	0	0	1	2	ACAD MANAGEMENT	BRIARCLIFF MANOR	PACE UNIV, PO BOX 3020, 235 ELM RD, BRIARCLIFF MANOR, NY 10510-8020	0001-4273			ACAD MANAGE J	Acad. Manage. J.		1969	12	1					15	19		10.2307/254668				5	Business; Management	Business & Economics	ZL971	WOS:A1969ZL97100002					2019-01-18	
J	WORTMAN, MS; MEYER, GD				WORTMAN, MS; MEYER, GD			IMPACT OF CENTRALIZED PERSONNEL FUNCTIONS IN STATE GOVERNMENTS	ACADEMY OF MANAGEMENT JOURNAL			English	Article									UNIV MASSACHUSETTS,AMHERST,MA; UNIV IOWA,IOWA CITY,IA							FELLOWS EW, 1964, PUBLIC PERSONNEL REV, V25, P231; KEATING WL, 1966, OKLAHOMA MERIT SYSTE, P1; OCHELTREE K, 1963, PUBLIC PERSONNEL REV, V24, P23; REYNOLDS HW, 1965, ANN AM ACADEMY POLIT, V359, P90; ROSEN HS, 1966, PUBLIC PERSONNEL REV, V27, P177; ROSS RM, 1966, STATE LOCAL GOVERNME, P385; SORAUF FJ, 1960, PUBLIC ADMIN REV, V20, P28, DOI 10.2307/974064; STAHL OG, 1962, PUBLIC PERSONNEL ADM, P4; STANLEY DT, 1964, PUBLIC PERS REV, V25, P90; YAMANE T, 1964, STATISTICS INTRO ANA, P552; 1966, MODERNIZING LOCAL GO, P18; 1958, 75 YEARS MERIT FITNE, P1; 75 YEARS, P8; 1965, BOOK STATES       S2, P67	14	3	3	0	1	ACAD MANAGEMENT	BRIARCLIFF MANOR	PACE UNIV, PO BOX 3020, 235 ELM RD, BRIARCLIFF MANOR, NY 10510-8020	0001-4273			ACAD MANAGE J	Acad. Manage. J.		1969	12	1					21	31		10.2307/254669				11	Business; Management	Business & Economics	ZL971	WOS:A1969ZL97100003					2019-01-18	
J	HILL, W				HILL, W			VALIDATION AND EXTENSION OF FIEDLERS THEORY OF LEADERSHIP EFFECTIVENESS	ACADEMY OF MANAGEMENT JOURNAL			English	Article									UNIV FLORIDA,GAINSVILLE,FL							BROWNE CG, 1958, STUDY LEADERSHIP, pR1; FIEDLER, 1961, HYPNOTICALLY INDUCED, P38; FIEDLER F, 1966, 33 GROUP EFF RES LAB, P30; Fiedler F. E., 1967, THEORY LEADERSHIP EF; HUNT JG, 1966, TEST LEADERSHIP CONT; MCGRATH JE, 1966, SMALL GROUP RES SYNT, P51; SHAW ME, 1966, J PERS SOC PSYCHOL, V3, P238, DOI 10.1037/h0022900; SHAW ME, 1963, SCALING GROUP TASKS	8	15	15	0	8	ACAD MANAGEMENT	BRIARCLIFF MANOR	PACE UNIV, PO BOX 3020, 235 ELM RD, BRIARCLIFF MANOR, NY 10510-8020	0001-4273			ACAD MANAGE J	Acad. Manage. J.		1969	12	1					33	47		10.2307/254670				15	Business; Management	Business & Economics	ZL971	WOS:A1969ZL97100004					2019-01-18	
J	LEWIN, AY; WEBER, WL				LEWIN, AY; WEBER, WL			MANAGEMENT GAME TEAMS IN EDUCATION AND ORGANIZATION RESEARCH - EXPERIMENT ON RISK TAKING	ACADEMY OF MANAGEMENT JOURNAL			English	Article									NEW YORK UNIV,NEW YORK,NY; SUNY BUFFALO,BUFFALO,NY							BASS BM, 1964, NEW PERSPECTIVES ORG; CANGELOSI VE, 1965, ADM SCI Q        SEP; CHURCHILL NC, 1965, EXPT MANAGEMENT AUDI; COHEN KJ, 1964, CARNEGIE TECH MANAGE, pCH7; Kogan N., 1964, RISK TAKING STUDY CO; LORGE I, 1958, PSYCHOLOGICAL B, V60, P337; MACKENZIE KD, 1968, 87 U PENNSYLVANIA WH; PIFER HW, 1968, MAY JOINT TIMSORSA M; RAIA AP, 1966, J BUSINESS       JUL; VANCE SC, 1967, ACADEMY MANAGEMENT J, V10; WADSWORTH GP, 1960, INTRO PROBABILITY RA, P255; WALLACH MA, 1962, J ABNORM PSYCHOL, V65, P75, DOI 10.1037/h0044376; Whyte W. H., 1956, ORG MAN	13	10	10	1	5	ACAD MANAGEMENT	BRIARCLIFF MANOR	PACE UNIV, PO BOX 3020, 235 ELM RD, BRIARCLIFF MANOR, NY 10510-8020	0001-4273			ACAD MANAGE J	Acad. Manage. J.		1969	12	1					49	58		10.2307/254671				10	Business; Management	Business & Economics	ZL971	WOS:A1969ZL97100005					2019-01-18	
J	FLEMING, JE				FLEMING, JE			MANAGERS AS SUBJECTS IN BUSINESS DECISION RESEARCH	ACADEMY OF MANAGEMENT JOURNAL			English	Article									UNIV SO CALIF,LOS ANGELES,CA							CYERT RM, 1963, BEHAV THEORY FIRM, P113; MARCH JG, 1958, ORGANIZATIONS, P180	2	11	11	0	1	ACAD MANAGEMENT	BRIARCLIFF MANOR	PACE UNIV, PO BOX 3020, 235 ELM RD, BRIARCLIFF MANOR, NY 10510-8020	0001-4273			ACAD MANAGE J	Acad. Manage. J.		1969	12	1					59	66		10.2307/254672				8	Business; Management	Business & Economics	ZL971	WOS:A1969ZL97100006					2019-01-18	
J	REED, JP				REED, JP			LAWYER-CLIENT - MANAGED RELATIONSHIP	ACADEMY OF MANAGEMENT JOURNAL			English	Article									WESTERN KENTUCKY UNIV,BOWLING GREEN,KY							Blaustein A. P., 1954, AM LAWYER SUMMARY SU; CHEATHAM EE, 1955, CASES MATERIALS LEGA; COUNTRYMAN V, 1961, LAWYER MODERN SOC; DRINKER HS, 1963, LEGAL ETHICS; GIBBS JP, 1966, AM SOCIOL REV, V31, P315, DOI 10.2307/2090820; JEROME E.CARLIN, 1962, LAWYERS ON THEIR OWN, P123; MAYER M, 1966, LAWYERS, P305; NAGEL SS, 1963, JUDICIAL DECISION MA, P50; SMIGEL EO, 1960, AM SOCIOL REV, V25, P56, DOI 10.2307/2088948; WOOD, AM J SOC, P48; WOOD AL, 1956, J LEGAL EDUC, V9, P162; WOOD AL, 1959, SOCIAL PROBLEMS, V7, P71; WOOD AL, 1956, AM J SOC, V52, P48; 1956, YOUR PRIVILEGES RESP; 1963, AM JURISPRUDENCE, V7, P105	15	6	6	1	4	ACAD MANAGEMENT	BRIARCLIFF MANOR	PACE UNIV, PO BOX 3020, 235 ELM RD, BRIARCLIFF MANOR, NY 10510-8020	0001-4273			ACAD MANAGE J	Acad. Manage. J.		1969	12	1					67	80		10.2307/254674				14	Business; Management	Business & Economics	ZL971	WOS:A1969ZL97100007					2019-01-18	
J	SCHOLLHAMMER, H				SCHOLLHAMMER, H			COMPARATIVE MANAGEMENT THEORY JUNGLE	ACADEMY OF MANAGEMENT JOURNAL			English	Article									UNIV CALIF LOS ANGELES,LOS ANGELES,CA							Argyris C., 1964, INTEGRATING INDIVIDU; BASS BM, 1967, PROGRAM EXERCISES MA; BLOUGH R, 1966, INT BUSINESS ENV ADA, pR5; COCHRAN, 1962, ENTREPRENEURSHIP ARG; ESTAFEN BD, 1967, THESIS U CALIFORNIA; FARMER RN, 1964, CALIFORNIA MANAGEMEN, V2; GELGER T, 1964, DEV AFRICAN PRIVATE; GEORGE CS, 1968, HISTORY MANAGEMENT T; GONZALEZ RF, 1961, ACAD MANAGE J, V4, P33; GRANICK D, 1960, RED EXECUTIVE; GRANICK D, 1962, EUROPEAN EXECUTIVE; Hagen Everett, 1962, THEORY SOCIAL CHANGE; HAIRE, 1963, IND RELATIONS, V2, P95; Haire M., 1966, MANAGERIAL THINKING; HALL E, 1960, HARVARD BUSINESS MAY, P87; Hall E. T., 1959, SILENT LANGUAGE; HARBISON F, 1959, MANAGEMENT IND WORLD, P17; HARTMAN H, 1959, AUTHORITY ORG GERMAN; KOONTZ H, 1961, ACAD MANAGE J, V4, P174; Koontz H., 1968, PRINCIPLES MANAGEMEN; LAUTERBACH A, 1962, KYKLOS, V15, P374, DOI 10.1111/j.1467-6435.1962.tb00066.x; LAUTERBACH A, 1966, ENTERPRISE LATIN AM; MCCANN EC, 1964, J ACADEMY MANAGEMENT, V3, P149; McClelland D., 1961, ACHIEVING SOC; MEE JF, 1963, MANAGEMENT THOUGHT D; MEE JF, 1963, HISTORY 20TH CENTURY; Negandhi A.R., 1965, ACAD MANAGE J, V8, P319; OBERG W, 1963, ACADEMY MANAGEMENT J, V1, P129; Perlmutter H.V., 1965, REV EC SOCIALE, V23, P151; RICHMAN BM, 1965, SOVIET MANAGEMENT SI; STAUFFER RC, 1952, Q REV BIOLOGY, V32, P138; THORELLI HB, 1966, SO J BUSINESS    JUL; YUSIF S, 1962, ENTREPRENEURS LEBANO; 1966, INT BUSINESS OPERATI; 1965, COMP MANAGEMENT EC P; 1967, MANAGEMENT DEV ED SO	36	22	24	0	1	ACAD MANAGEMENT	BRIARCLIFF MANOR	PACE UNIV, PO BOX 3020, 235 ELM RD, BRIARCLIFF MANOR, NY 10510-8020	0001-4273			ACAD MANAGE J	Acad. Manage. J.		1969	12	1					81	97		10.2307/254675				17	Business; Management	Business & Economics	ZL971	WOS:A1969ZL97100008					2019-01-18	
J	URWICK, LF				URWICK, LF			SOME OBERSVATIONS	ACADEMY OF MANAGEMENT JOURNAL			English	Article																Barnard Chester I., 1938, FUNCT EXECUTIVE, P163; BARNARD CI, 1949, ORG MANAGEMENT SELEC, P31; Conquest Robert, 1968, GREAT TERROR; Drucker P, 1954, PRACTICE MANAGE, P37; MOONEY JD, 1931, ONWARD IND, P204; NORTHCOTT CH, 1955, PERSONNEL MANAGEMENT, P62; ROWNTREE BS, 1921, HUMAN FACTOR BUSINES, P135; SAYLES LR, 1964, MANAGERIAL BEHAVIOR, P39; SCOTT, 1968, ACADEMY MANAGEME DEC, P447; Taylor F. W., 1947, SCI MANAGEMENT; TAYLOR FW, 1903, SHOP MANAGEMENT, P94	11	0	0	0	1	ACAD MANAGEMENT	BRIARCLIFF MANOR	PACE UNIV, PO BOX 3020, 235 ELM RD, BRIARCLIFF MANOR, NY 10510-8020	0001-4273			ACAD MANAGE J	Acad. Manage. J.		1969	12	1					99	103		10.2307/254676				5	Business; Management	Business & Economics	ZL971	WOS:A1969ZL97100009					2019-01-18	
J	FORSGREN, RA				FORSGREN, RA			PROFILE OF ACADEMY OF MANAGEMENT MEMBER	ACADEMY OF MANAGEMENT JOURNAL			English	Article									UNIV MAINE,ORONO,ME								0	0	0	0	1	ACAD MANAGEMENT	BRIARCLIFF MANOR	PACE UNIV, PO BOX 3020, 235 ELM RD, BRIARCLIFF MANOR, NY 10510-8020	0001-4273			ACAD MANAGE J	Acad. Manage. J.		1969	12	1					119	&						0	Business; Management	Business & Economics	ZL971	WOS:A1969ZL97100010					2019-01-18	
J	BROWN, WB				BROWN, WB			IMPACT OF A DYNAMIC TASK ENVIRONMENT - STUDY OF ARCHITECTURAL-ENGINEERING FIRMS	ACADEMY OF MANAGEMENT JOURNAL			English	Article									UNIV OREGON,EUGENE,OR							*BATT I, STAT ART PREF CONSTR; BROWN WB, 1966, ACADEMY MANAGEME DEC; DEASY CM, 1968, AIA J            JAN, P72; DILL WR, 1958, ADMIN SCI QUART, V2, P409, DOI 10.2307/2390794; EMERY FE, 1965, HUM RELAT, V18, P21, DOI 10.1177/001872676501800103; HUNT D, 1963, AIA J            OCT, P49; KETCHUM M, 1967, AIA J            JUL, P36; LEVINE S, 1961, ADMIN SCI QUART, V5, P583, DOI 10.2307/2390622; MARZOLF K, 1967, AIA J            OCT, P62; MCMAHAN JW, 1965, AIA J            OCT, P61; OHANLON T, 1968, FORTUNE          DEC, P102; OHANLON T, 1968, FORTUNE          DEC, P209; Selznick P., 1949, TVA GRASS ROOTS; SONDER JJ, 1963, AIA J            OCT, P97; SPILHAUS A, 1968, SCIENCE, V159, P711; TERREBERRY S, 1968, ADMIN SCI QUART, V12, P590, DOI 10.2307/2391535; Thompson J. D., 1967, ORG ACTION, P27; 1965, AIA J            OCT, P53	18	2	2	0	3	ACAD MANAGEMENT	BRIARCLIFF MANOR	PACE UNIV, PO BOX 3020, 235 ELM RD, BRIARCLIFF MANOR, NY 10510-8020	0001-4273			ACAD MANAGE J	Acad. Manage. J.		1969	12	2					169	177		10.2307/254813				9	Business; Management	Business & Economics	ZL972	WOS:A1969ZL97200002					2019-01-18	
J	PETERS, DH; ROBERTS, EB				PETERS, DH; ROBERTS, EB			UNUTILIZED IDEAS IN UNIVERSITY LABORATORIES	ACADEMY OF MANAGEMENT JOURNAL			English	Article									MIT,CAMBRIDGE,MA; EG & G INC,WALTHAM,MA							PELZ DC, 1967, SCIENCE, V157, P160, DOI 10.1126/science.157.3785.160; ROBERTS EB, 1966, MIT19566 SLOAN SCH M; ROBERTS EB, 1968, SCI J            DEC, P78; WAINER HA, COMMUNICATION; WAINER HA, J APPLIED PSYCHOLOGY	5	7	7	0	2	ACAD MANAGEMENT	BRIARCLIFF MANOR	PACE UNIV, PO BOX 3020, 235 ELM RD, BRIARCLIFF MANOR, NY 10510-8020	0001-4273			ACAD MANAGE J	Acad. Manage. J.		1969	12	2					179	191		10.2307/254814				13	Business; Management	Business & Economics	ZL972	WOS:A1969ZL97200003					2019-01-18	
J	IVANCEVICH, JM; STRAWSER, RH				IVANCEVICH, JM; STRAWSER, RH			COMPARATIVE ANALYSIS OF JOB SATISFACTION OF INDUSTRIAL MANAGERS AND CERTIFIED PUBLIC ACCOUNTANTS	ACADEMY OF MANAGEMENT JOURNAL			English	Article									PENN STATE UNIV,PHILADELPHIA,PA; UNIV KENTUCKY,LEXINGTON,KY							*AM I CERT PUBL AC, 1968, ALPH LIST MEMB; CUMMINGS LL, 1968, PSYCHOL BULL, V70, P127, DOI 10.1037/h0026038; EDEL EC, 1966, PERSONNEL ADM, V29, P31; ELSALMI AM, 1968, PERS PSYCHOL, V21, P465, DOI 10.1111/j.1744-6570.1968.tb02046.x; Haire M., 1966, MANAGERIAL THINKING; Maslow A. H., 1954, MOTIVATION PERSONALI; Maslow AH, 1943, PSYCHOL REV, V50, P370, DOI 10.1037/h0054346; PAINE FT, 1966, J APPL PSYCHOL, V50, P247, DOI 10.1037/h0023422; PERROW C, 1967, AM SOCIOL REV, V32, P194, DOI 10.2307/2091811; Porter L.W., 1968, MANAGERIAL ATTITUDES; PORTER LW, 1962, J APPL PSYCHOL, V46, P375, DOI 10.1037/h0047808; PORTER LW, 1961, J APPL PSYCHOL, V45, P1, DOI 10.1037/h0043121; PORTER LW, 1963, J APPL PSYCHOL, V47, P267, DOI 10.1037/h0041712; PORTER LW, 1968, HARVARD BUS REV, V46, P118; PORTER LW, 1964, J APPL PSYCHOL, V48, P31, DOI 10.1037/h0044398; PORTER LW, 1963, J APPL PSYCHOL, V47, P386, DOI 10.1037/h0041064; PORTER LW, JOB ATTITUDES MANAGE; TRIANDIS HC, 1959, J APPL PSYCHOL, V43, P221, DOI 10.1037/h0045311; TRIANDIS HC, 1953, J APPLIED PSYCHOLOGY, V37, P338	19	6	6	2	7	ACAD MANAGEMENT	BRIARCLIFF MANOR	PACE UNIV, PO BOX 3020, 235 ELM RD, BRIARCLIFF MANOR, NY 10510-8020	0001-4273			ACAD MANAGE J	Acad. Manage. J.		1969	12	2					193	203		10.2307/254815				11	Business; Management	Business & Economics	ZL972	WOS:A1969ZL97200004					2019-01-18	
J	CALHOON, RP				CALHOON, RP			MACHIAVELLI,N AND 20TH CENTURY ADMINISTRATOR	ACADEMY OF MANAGEMENT JOURNAL			English	Article									UNIV N CAROLINA,CHAPEL HILL,NC							BACON F, ESSAYS 1597 1623; GRACIANYMORALES B, 1653, ART WORLDLY WISDOM; JAY A, 1967, MANAGEMENT MACHIAVEL, P26; MILES SB, 1961, HARVARD BUSINESS REV, V39, P36; ODIORNE GS, 1967, MICHIGAN BUSINES NOV, P23; PREZZOLINI G, 1961, NATIONAL REV    0408, P217; SFORZA C, 1940, LIVING THOUGHTS MACH, P13	7	41	42	0	4	ACAD MANAGEMENT	BRIARCLIFF MANOR	PACE UNIV, PO BOX 3020, 235 ELM RD, BRIARCLIFF MANOR, NY 10510-8020	0001-4273			ACAD MANAGE J	Acad. Manage. J.		1969	12	2					205	212		10.2307/254816				8	Business; Management	Business & Economics	ZL972	WOS:A1969ZL97200005					2019-01-18	
J	LUTHANS, F; HODGETTS, RM				LUTHANS, F; HODGETTS, RM			MANAGERIAL ANALYSIS OF DOCTORAL CANDIDATES AND PROFESSORS - RESEARCH ATTITUDES AND INTERPERSONAL RELATIONS	ACADEMY OF MANAGEMENT JOURNAL			English	Article									UNIV NEBRASKA,LINCOLN,NE							JANOWITZ M, 1960, PROFESSIONAL SOLDIER, P9; MCCONNELL TR, 1963, STUDY ACADEMIC ADM, P113; MOONEY JD, 1968, J HUMAN RESOURCES, V3, P48; OWEN JK, 1962, MODERN CONCEPTS HOSP, P5; PERKINS JA, 1960, PUBLIC ADMIN REV, V20, P1, DOI 10.2307/974059; WALDO D, 1955, STUDY PUBLIC ADM, P56; 1967, FACT BOOK HIGHER ED, P148; 1967, BUSINESS WEEK   0408, P54; 1965, GUIDE GRADUATE STUDY	9	0	0	0	1	ACAD MANAGEMENT	BRIARCLIFF MANOR	PACE UNIV, PO BOX 3020, 235 ELM RD, BRIARCLIFF MANOR, NY 10510-8020	0001-4273			ACAD MANAGE J	Acad. Manage. J.		1969	12	2					213	221		10.2307/254817				9	Business; Management	Business & Economics	ZL972	WOS:A1969ZL97200006					2019-01-18	
J	CHUNG, KH				CHUNG, KH			MARKOV CHAIN MODEL OF HUMAN NEEDS - EXTENSION OF MASLOWS NEED THEORY	ACADEMY OF MANAGEMENT JOURNAL			English	Article									NO ILLINOIS UNIV,DEKALB,IL							ATKINSON JW, 1965, HUMAN MOTIVATION, P16; CARZO R, 1967, FORMAL ORG, P486; CHUNG KH, 1968, ACAD MANAGE J, V11, P63, DOI 10.2307/255197; CLARK JV, 1960, HUMAN ORG, V14, P199; FEN S, 1968, BEHAVIORAL SCI, V13, P141; Goodman R. A., 1968, BRIT J IND RELAT, V6, P51; HALL DT, 1968, ORGAN BEHAV HUM PERF, V3, P12, DOI 10.1016/0030-5073(68)90024-X; HICKS HG, 1967, MANAGEMENT ORG, P38; HOMANS GC, 1961, SOCIAL BEHAVIOR, P265; KEMENY JG, 1962, FINITE MATH BUSINESS, P193; LEFTWICH RH, 1961, PRICE SYSTEM RESOURC, P49; MARCH JG, 1958, ORGANIZATIONS, P48; MASLOW AH, 1965, NEBRASKA S MOTIVATIO, P1; MASLOW AH, 1954, MOTIV PERS, P22; McGregor D, 1960, HUMAN SIDE ENTERPRIS, P36	15	3	3	0	3	ACAD MANAGEMENT	BRIARCLIFF MANOR	PACE UNIV, PO BOX 3020, 235 ELM RD, BRIARCLIFF MANOR, NY 10510-8020	0001-4273			ACAD MANAGE J	Acad. Manage. J.		1969	12	2					223	234		10.2307/254818				12	Business; Management	Business & Economics	ZL972	WOS:A1969ZL97200007					2019-01-18	
J	WESTFALL, SL				WESTFALL, SL			STIMULATING CORPORATE ENTREPRENEURSHIP IN UNITED-STATES INDUSTRY	ACADEMY OF MANAGEMENT JOURNAL			English	Article									LAIRD SYST INC,LOS ANGELES,CA							Ansoff H.I., 1965, HARVARD BUS REV, V43, P162; DIFFLEY PJ, UNPUBLISHED; GALVIN RW, 1966, J MARKETING, V30, P1, DOI 10.2307/1249490; GALVIN RW, 1966, J MARKETING, V30, P2; LEAVITT HJ, 1958, HARVARD BUS REV, V36, P41; MARCH JG, 1958, ORGANIZATIONS, P187; MCDERMOTT A, 1967, INT COMMERCE    0626, P3; MCDERMOTT A, 1967, INT COMMERCE    0626, P2; ROSNER MM, 1968, ADMIN SCI QUART, V12, P614, DOI 10.2307/2391536; WATSON AK, 1965, REPORT ADVISORY COMM	10	1	1	2	10	ACAD MANAGEMENT	BRIARCLIFF MANOR	PACE UNIV, PO BOX 3020, 235 ELM RD, BRIARCLIFF MANOR, NY 10510-8020	0001-4273			ACAD MANAGE J	Acad. Manage. J.		1969	12	2					235	246		10.2307/254819				12	Business; Management	Business & Economics	ZL972	WOS:A1969ZL97200008					2019-01-18	
J	HAY, RD				HAY, RD			USE OF MODIFIED SEMATIC DIFFERENTIALS TO EVALUATE FORMAL ORGANIZATIONAL STRUCTURE	ACADEMY OF MANAGEMENT JOURNAL			English	Article									UNIV ARKANSAS,FAYETTEVILLE,AR							HELMSTADTER GC, 1964, PRINCIPLES PSYCHOLOG, P211; Osgood C. E., 1957, MEASUREMENT MEANING, P20	2	0	0	0	2	ACAD MANAGEMENT	BRIARCLIFF MANOR	PACE UNIV, PO BOX 3020, 235 ELM RD, BRIARCLIFF MANOR, NY 10510-8020	0001-4273			ACAD MANAGE J	Acad. Manage. J.		1969	12	2					247	257		10.2307/254820				11	Business; Management	Business & Economics	ZL972	WOS:A1969ZL97200009					2019-01-18	
J	BAUM, B; BURACK, E				BAUM, B; BURACK, E			INFORMATION TECHNOLOGY, MANPOWER DEVELOPMENT AND ORGANIZATIONAL PERFORMANCE	ACADEMY OF MANAGEMENT JOURNAL			English	Article									ILLINOIS INST TECHNOL,CHICAGO,IL 60616; UNIV ILLINOIS,CHICAGO,IL							ARMER P, 1966, OUTLOOK TECHNOLOGICA, V1; BRUNS WJ, 1968, ACCOUNT REV      JUL, P469; BURACK EH, 1966, BUSINESS Q, V30; DEAN N, 1968, HARVARD BUSINESS REV, V46; GREENBERGER M, 1962, MANAGEMENT COMPUTERS; GUEST RH, 1966, BUSINESS Q, V31; HANSEN RA, 1963, ANN P ACADEMY MANAGE, P84; KAHL AL, 1968, COMMERCIAL FINAN SEP, P10; MANN FC, 1958, ANN P IND RELATIONS; MANN FC, 1960, ADM SCI Q, V5; MYERS CA, 1967, IMPACT COMPUTERS MAN; OBRIEN JA, 1968, BANKING          JUL; SIMON H, 1966, 19TH P ANN WINT M IN, P177; Simon H. A., 1965, SHAPE AUTOMATION MAN; WALKER CR, 1968, TECHNOLOGY IND MAN A, P85; 1968, BANK EQUIPMENT N OCT, P26	16	3	3	0	1	ACAD MANAGEMENT	BRIARCLIFF MANOR	PACE UNIV, PO BOX 3020, 235 ELM RD, BRIARCLIFF MANOR, NY 10510-8020	0001-4273			ACAD MANAGE J	Acad. Manage. J.		1969	12	3					279	291		10.2307/255176				13	Business; Management	Business & Economics	ZL973	WOS:A1969ZL97300001					2019-01-18	
J	LABOVITZ, GH				LABOVITZ, GH			DEFENSE OF SUBJECTIVE EXECUTIVE APPRAISAL	ACADEMY OF MANAGEMENT JOURNAL			English	Article									BOSTON UNIV,BOSTON,MA							ALLEE WC, 1959, INDIVIDUAL BEHAVIOR, P53; ARGYRIS C, 1959, ADMIN SCI QUART, V4, P145, DOI 10.2307/2390675; BARNARD C, 1958, FUNCTIONS EXECUTIVE, P215; BLANCHARD DA, 1967, COMMUNICATION   0202; BRYAN WR, 1967, COMMUNICATION   0130; CARTWRIGHT D, 1953, DYNAMICS, P489; Drucker P., 1954, PRACTICE MANAGEMENT; EVANS RL, 1967, COMMUNICATION   0208; Homans G. C., 1950, HUMAN GROUP; KAPPEL FR, 1967, COMMUNICATION   0215; LEAVITT H, 1964, MANAGERIAL PSYCHOLOG, P281; LERNER ML, 1965, CURRENT STUDIES SOCI, P229; LIKERT R, 1961, NEW PATTERNS MANAGEM, P194; LIKERT R, 1959, HARVARD BUSINESS JUL, P75; LIKERT R, 1967, HUMAN ORG, P164; LILLIE J, 1967, COMMUNICATION   0214; MAYFIELD H, 1960, HBR              MAR, P81; MCGREGOR D, 1957, HARVARD BUSINESS MAY, P89; NEWCOMB TM, 1965, SOCIAL PSYCHOLOGY, P129; PETITPAS G, 1967, COMMUNICATION   0213; PORTER L, 1966, PERSONNEL MANAGEMENT, P408; Riesman David, 1952, LONELY CROWD; RUBENSTEIN A, 1960, SOME THEORIES ORG, P514; TENNENBAUM R, 1961, LEADERSHIP ORG, P327; WHYTE W, ORG MAN; ZALESNIK, 1966, READINGS ORG THEORY, P230; ZALESNIK A, 1966, READINGS ORG THEORY, P228	27	4	4	0	1	ACAD MANAGEMENT	BRIARCLIFF MANOR	PACE UNIV, PO BOX 3020, 235 ELM RD, BRIARCLIFF MANOR, NY 10510-8020	0001-4273			ACAD MANAGE J	Acad. Manage. J.		1969	12	3					293	307		10.2307/255177				15	Business; Management	Business & Economics	ZL973	WOS:A1969ZL97300002					2019-01-18	
J	GOLEMBIEWSKI, RT; BLUMBERG, A				GOLEMBIEWSKI, RT; BLUMBERG, A			PERSISTENCE OF ATTITUDINAL CHANGES INDUCED BY A CONFRONTATION DESIGN - RESEARCH NOTE	ACADEMY OF MANAGEMENT JOURNAL			English	Article									UNIV GEORGIA,ATHENS,GA; SYRACUSE UNIV,SYRACUSE,NY 13210							GOLEMBIEWSKI RT, 1968, ACAD MANAGE J, V11, P199, DOI 10.2307/255257	1	0	0	0	1	ACAD MANAGEMENT	BRIARCLIFF MANOR	PACE UNIV, PO BOX 3020, 235 ELM RD, BRIARCLIFF MANOR, NY 10510-8020	0001-4273			ACAD MANAGE J	Acad. Manage. J.		1969	12	3					309	317		10.2307/255178				9	Business; Management	Business & Economics	ZL973	WOS:A1969ZL97300003					2019-01-18	
J	BURKE, RJ; WILCOX, DS				BURKE, RJ; WILCOX, DS			EFFECTS OF DIFFERENT PATTERNS AND DEGREES OF OPENNESS IN SUPERIOR-SUBORDINATE COMMUNICATION ON SUBORDINATE JOB SATISFACTION	ACADEMY OF MANAGEMENT JOURNAL			English	Article									YORK UNIV,DOWNSVIEW,ONTARIO,CANADA							BURKE RJ, EFFECTS DIFFERENT BA; BURKE RJ, PERSONNEL PSYCHOLOGY; COHEN AR, 1958, HUM RELAT, V11, P41, DOI 10.1177/001872675801100103; HABBE S, 1952, MGMT RECORD, V14, P442; HABBE S, 1952, MGMT RECORD, V14, P414; Kelley HH, 1951, HUM RELAT, V4, P39, DOI 10.1177/001872675100400102; LIKERT R, 1956, AM MANAGEMENT ASS AN, P21; Likert R., 1967, HUMAN ORG; Likert R., 1961, NEW PATTERNS MANAGEM; MAIER NRF, 1963, PERS PSYCHOL, V16, P1, DOI 10.1111/j.1744-6570.1963.tb01249.x; MAIER NRF, 1961, 52 AM MAN ASS RES ST; MELLINGER GD, 1956, J ABNORM SOC PSYCH, V52, P304, DOI 10.1037/h0048100; READ WH, 1962, HUM RELAT, V15, P3, DOI 10.1177/001872676201500101; Rogers C, 1961, BECOMING PERSON; RUBIN IM, 1968, ORGAN BEHAV HUM PERF, V3, P143, DOI 10.1016/0030-5073(68)90003-2; THAYER, 1968, COMMUNICATION COMMUN	16	18	18	0	4	ACAD MANAGEMENT	BRIARCLIFF MANOR	PACE UNIV, PO BOX 3020, 235 ELM RD, BRIARCLIFF MANOR, NY 10510-8020	0001-4273			ACAD MANAGE J	Acad. Manage. J.		1969	12	3					319	326		10.2307/255179				8	Business; Management	Business & Economics	ZL973	WOS:A1969ZL97300004					2019-01-18	
J	LEE, SM				LEE, SM			ORGANIZATIONAL IDENTIFICATION OF SCIENTISTS	ACADEMY OF MANAGEMENT JOURNAL			English	Article									VIRGINIA POLYTECH INST,BLACKSBURG,VA 24061							BARNES LB, 1960, ORG SYSTEM ENGINEERI, P3; COLEMAN JS, 1957, AM J SOC, V63, P255; DANIELSON LE, 1960, CHARACTERISTICS ENGI, P16; Drucker PF, 1952, HARVARD BUS REV, V30, P84; GOULDNER, 1957, ADM SCI Q, V2, P291; GOULDNER, ADM SCI Q, V3; Gouldner Alvin W., 1954, SOC PROBL, V2, P82; HIRSCH I, 1958, HARVARD BUSINESS REV, V36, P69; HODGE RW, 1964, AM J SOCIOL, V70, P286, DOI 10.1086/223840; KAPLAN N, 1965, SOCIAL PROBLEMS, V13, P91; KORNHOUSER W, 1962, SCI IND CONFLICTS AC; LEWIS LS, 1967, ADMIN SCI QUART, V11, P629, DOI 10.2307/2391079; MARCH JG, 1963, ORGANIZATIONS, P65; Marcson S., 1960, SCI AM IND; MCGREGOR, LEADERSHIP MOTIVATIO, P38; MCGREGOR D, 1966, LEADERSHIP MOTIVATIO, P21; MOORE DG, 1955, J BUSINESS, V28, P60; REISSMAN L, 1967, SOCIAL FORCES, V27, P629; SIMON HA, 1950, PUBLIC ADM, P94; STRAUSS AL, 1962, PROFESSIONAL SCI STU; *US DEP LAB, 1967, MANP REP PRES, P172	21	27	27	0	6	ACAD MANAGEMENT	BRIARCLIFF MANOR	PACE UNIV, PO BOX 3020, 235 ELM RD, BRIARCLIFF MANOR, NY 10510-8020	0001-4273			ACAD MANAGE J	Acad. Manage. J.		1969	12	3					327	337		10.2307/255180				11	Business; Management	Business & Economics	ZL973	WOS:A1969ZL97300005					2019-01-18	
J	PRUDEN, HO				PRUDEN, HO			INTERORGANIZATIONAL CONFLICT, LINKAGE, AND EXCHANGE - STUDY OF INDUSTRIAL SALESMEN	ACADEMY OF MANAGEMENT JOURNAL			English	Article									UNIV TEXAS AUSTIN,AUSTIN,TX							ALBAUM G, 1964, ACAD MANAGE J, V7, P21, DOI 10.2307/255231; BELASCO JA, 1966, J MARKETING, V30, P6, DOI 10.2307/1249055; Blau P. M., 1962, FORMAL ORG, P194; BROWN WB, 1966, ACAD MANAGE J, V9, P318, DOI 10.2307/254950; BROWN WB, 1963, HOUSE HOME, V24, P119; DUBIN R, 1968, HUMAN RELATIONS ADM, P31; DUTTON JM, 1966, HUM ORGAN, V25, P207, DOI 10.17730/humo.25.3.n044386091127v88; KATZ D, 1966, SOCIAL PSYCHOLOGY OR, P16; KELLEY EJ, 1962, MANAGERIAL MARKETING, P537; KELTNER JW, 1965, J COMMUNICATIONS, V25, P64; LANDSBERGER HA, 1961, ADMIN SCI QUART, V6, P299, DOI 10.2307/2390705; LAWRENCE PR, 1967, ADMIN SCI QUART, V12, P1, DOI 10.2307/2391211; LAWRENCE PR, 1967, HARVARD BUS REV, V45, P142; LITWAK E, 1962, ADM SCI Q, V6, P399; MALLEN B, 1963, J RETAILING, V39, P24; MALLEN B, 1963, J RETAILING, V39, P51; PYM DLA, 1965, OCCUP PSYCHOL, V39, P103; SCOTT WG, 1961, ACAD MANAGE J, V4, P7; SIMON H, 1957, ADMIN BEHAV, P129; WALTON R. E., 1966, SOME THEORIES ORG, P444; WREN DA, 1967, ACAD MANAGE J, V10, P69, DOI 10.2307/255245	21	29	29	0	3	ACAD MANAGEMENT	BRIARCLIFF MANOR	PACE UNIV, PO BOX 3020, 235 ELM RD, BRIARCLIFF MANOR, NY 10510-8020	0001-4273			ACAD MANAGE J	Acad. Manage. J.		1969	12	3					339	350		10.2307/255181				12	Business; Management	Business & Economics	ZL973	WOS:A1969ZL97300006					2019-01-18	
J	JONES, HR				JONES, HR			STUDY OF ORGANIZATION PERFORMANCE FOR EXPERIMENTAL STRUCTURES OF 2,3 AND 4 LEVELS	ACADEMY OF MANAGEMENT JOURNAL			English	Article									UNIV MASSACHUSETTS,AMHERST,MA 01002							BASS BM, 1965, ORG PSYCHOLOGY, P255; DRUCKER PF, 1954, PRACTICE MANAGE, P203; EDWARDS AL, 1960, EXPT DESIGN PSYCHOLO; KERLINGER FN, 1964, F BEHAVIORAL RES; KNOX JB, 1955, SOC IND RELATIONS, P81; KOONTZ H, 1964, PRINCIPLES MANAGEMEN, P227; KRUGMAN HE, 1960, FESTSCHRIFT G MURPHY, P244; MELTZER L, 1962, AM SOC REV, V24, P351; MILLER DC, 1964, IND SOC, P729; NEWMAN WH, 1963, PROCESS MANAGEMENT, P147; PORTER LW, 1964, PERSONNEL PSYCHOLOGY, V17; Worthy JC, 1950, AM SOCIOL REV, V15, P169, DOI 10.2307/2086780	12	7	7	0	1	ACAD MANAGEMENT	BRIARCLIFF MANOR	PACE UNIV, PO BOX 3020, 235 ELM RD, BRIARCLIFF MANOR, NY 10510-8020	0001-4273			ACAD MANAGE J	Acad. Manage. J.		1969	12	3					351	365		10.2307/255182				15	Business; Management	Business & Economics	ZL973	WOS:A1969ZL97300007					2019-01-18	
J	LAUTER, GP				LAUTER, GP			SOCIOLOGICAL-CULTURAL AND LEGAL FACTORS IMPEDING DECENTRALIZATION OF AUTHORITY IN DEVELOPING COUNTRIES	ACADEMY OF MANAGEMENT JOURNAL			English	Article									GEORGE WASHINGTON UNIV,WASHINGTON,DC 20046							Argyris C., 1964, INTEGRATING INDIVIDU; COHN E, 1963, SOCIAL ASPECTS EC DE, P98; DRUCKER PF, 1946, CONCEPT CORPORATION, P46; EREN N, 1962, TURKEY TODAY TOMORRO, P183; Farmer R. N., 1965, COMP MANAGEMENT EC P; HAGE J, 1967, ADMIN SCI QUART, V12, P72, DOI 10.2307/2391213; Helmer Olaf, 1959, MANAGEMENT SCI, V6, P5; KOONTZ H, 1968, PRINCIPLES MANAGEMEN, pCH17; Likert R., 1961, NEW PATTERNS MANAGEM; McGregor D, 1960, HUMAN SIDE ENTERPRIS; MIHCIOGLU C, 1963, CIVIL SERVICE TURKEY, P31; NEWMAN WH, 1967, PROCESS MANAGEMENT, pCH4; RICHMAN, COMP MANAGEMENT EC P, P329; SCHOLLHAMMER H, 1969, ACADEMY MANAGEMENT J, V12, P86; WHITEFORD AH, 1967, REAPPRAISAL ECONOMIC, P177; 1965, ORG FUNCTIONS CENTRA, P360	16	12	12	0	3	ACAD MANAGEMENT	BRIARCLIFF MANOR	PACE UNIV, PO BOX 3020, 235 ELM RD, BRIARCLIFF MANOR, NY 10510-8020	0001-4273			ACAD MANAGE J	Acad. Manage. J.		1969	12	3					367	378		10.2307/255183				12	Business; Management	Business & Economics	ZL973	WOS:A1969ZL97300008					2019-01-18	
J	BERNTHAL, WF				BERNTHAL, WF			SIGMA IOTA EPSILON - ACADEMYS STUDENT DIVISION - OPPORTUNITY AND DILEMMA FOR MANAGEMENT PROFESSOR	ACADEMY OF MANAGEMENT JOURNAL			English	Article									UNIV COLORADO,SCH BUSINESS,SIGMA IOTA EPSILON,NATL OFF,BOULDER,CO 80302								0	0	0	0	1	ACAD MANAGEMENT	BRIARCLIFF MANOR	PACE UNIV, PO BOX 3020, 235 ELM RD, BRIARCLIFF MANOR, NY 10510-8020	0001-4273			ACAD MANAGE J	Acad. Manage. J.		1969	12	3					379	381		10.2307/255184				3	Business; Management	Business & Economics	ZL973	WOS:A1969ZL97300009					2019-01-18	
J	KOONTZ, H				KOONTZ, H			MODEL FOR ANALYZING UNIVERSALITY AND TRANSFERABILITY OF MANAGEMENT	ACADEMY OF MANAGEMENT JOURNAL			English	Article									UNIV CALIF LOS ANGELES,LOS ANGELES,CA							BERELSON B, 1964, HUMAN BEHAVIOR INVEN; BRANDENBERG F, 1964, DEV LATIN AM PRIVATE; BRYCE MD, 1960, IND DEV, P3; ESTAFEN BD, 1967, EMPIRICAL EXPT COMP; Farmer R. N., 1965, COMP MANAGEMENT EC P; FARMER RN, 1966, INT BUSINESS OPERATI, P39; FARMER RN, 1965, COMP MANAGEMENT EC P, P1; FAYERWEATHER J, 1959, EXECUTIVE OVERSEAS; FLORES FC, 1967, APPLICABILITY AM MAN; GEIGER T, 1961, GENERAL ELECTRIC COM; GEIGER T, 1961, DEV AFRICAN PRIVATE; GONZALEZ RF, 1961, J ACADEMY MANAGEMENT, P41; Haire M., 1966, MANAGERIAL THINKING; HARBISON F, 1959, MANAGEMENT IND WORLD, P117; HOMANS GC, 1950, HUMAN GROUP, P5; JAEGER J, 1965, COMP MANAGEMENT STUD; KANNAPPAN S, 1967, ALUMINUM LTD INDIA; NEGANDHI AR, 1969, COMP ADM MANAGEMENT; NEGANDHI AR, 1965, ACADEMY MANAGEMENT J, V8, P312; OBERG W, 1963, ACADEMY MANAGEMENT J, V6, P120; PAPAGEORGE AJ, 1967, TRANSFERABILITY MANA; PIERCE JL, 1968, ORG EFFECTIVENESS IN; PRASAD, 1966, ACADEMY MANAGEMENT J, V9, P328; RICHMAN BM, 1967, CALIFORNIA MANAGEMEN, V9, P12; ROSS J, 1963, P INT MANAGEMENT C C, V13; ROSTOW WW, 1962, STAGES EC GROWTH, P52; SAYLES LR, 1964, MANAGERIAL BEHAVIOR, P17; 1964, CALIFORNIA MANAGEMEN, V7, P58; 1958, JAPANESE FACTORY	29	12	14	0	2	ACAD MANAGEMENT	BRIARCLIFF MANOR	PACE UNIV, PO BOX 3020, 235 ELM RD, BRIARCLIFF MANOR, NY 10510-8020	0001-4273			ACAD MANAGE J	Acad. Manage. J.		1969	12	4					415	429		10.2307/254730				15	Business; Management	Business & Economics	ZL974	WOS:A1969ZL97400001					2019-01-18	
J	BALK, WL				BALK, WL			STATUS PERCEPTIONS OF MANAGEMENT PEERS	ACADEMY OF MANAGEMENT JOURNAL			English	Article									SUNY ALBANY,ALBANY,NY							BLAU P, 1964, EXCHANGE POWER SOCIA, P220; Likert R., 1961, NEW PATTERNS MANAGEM; ROETHLISBERGER FJ, 1965, HARVARD BUSINESS REV, V43, P24; TURNER AN, 1965, IND JOBS WORKER, P19	4	0	0	1	3	ACAD MANAGEMENT	BRIARCLIFF MANOR	PACE UNIV, PO BOX 3020, 235 ELM RD, BRIARCLIFF MANOR, NY 10510-8020	0001-4273			ACAD MANAGE J	Acad. Manage. J.		1969	12	4					431	437		10.2307/254731				7	Business; Management	Business & Economics	ZL974	WOS:A1969ZL97400002					2019-01-18	
J	GLUECK, WF				GLUECK, WF			ORGANIZATION CHANGE IN BUSINESS AND GOVERNMENT	ACADEMY OF MANAGEMENT JOURNAL			English	Article									UNIV MISSOURI,COLUMBIA,MO							AIKEN C, 1951, AM POLITICAL SCI AUT; Allport G, 1960, PERSONALITY SOCIAL E; ARGYRIS C, 1965, ORG INNOVATION; BARTLETT AC, 1967, CHANGING BEHAVIOR ME, V3, P381; Bennis W. G., 1966, CHANGING ORG; Chandler A. D., 1962, STRATEGY STRUCTURE; Chapple ED, 1961, MEASURE MANAGEMENT; CLEAVLAND FN, PUBLIC ADM REV, V13, P17; DAVIS SA, 1967, ORGANIC PROBLEM SOLV, V3, P3; DEVINE WR, 1955, PUBLIC ADM REV   AUT; FINER H, POLITICAL SCI Q    2, P579; FINER H, POLITICAL SCI Q    1, P405; GARDNER JW, 1965, HARPERS MAGAZINE OCT; GINZBERG E, 1965, PLURALIST EC; GUEST RH, 1962, ORG CHANGE EFFECT SU; Herzberg F, 1959, MOTIVATION WORK; HODGSON R, 1966, EXECUTIVE ROLE CONST; KAUFMAN H, 1959, INTER U CASE PROGRAM; KNIGHT K, 1967, PLANNED ORG CHANGE P, P33; LAWRENCE PR, 1958, CHANGING ORG BEHAVIO; Leavitt H. J., 1965, HDB ORG, P1144; LIKERT R, 1968, HUMAN ORG; Maslow A. H., 1954, MOTIVATION PERSONALI; MOSHER FC, 1967, GOVERNMENT REORGANIZ, pR15; NORTHRUP R, 1957, ADM DOCTRINE ADM BEH; OCONNELL J, 1968, MANAGING ORG INNOVAT, P6; Rogers C, 1961, BECOMING PERSON; ROGERS CR, 1958, AM PSYCHOL, V13, P142, DOI 10.1037/h0042129; SHERMAN H, 1966, IT ALL DEPENDS, P87; SHERMAN H, 1966, IT ALL DEPENDS, P23; SIMON H, 1962, PUBLIC ADM, P9; SIMON H, 1962, PUBLIC ADM, P8	32	5	5	1	3	ACAD MANAGEMENT	BRIARCLIFF MANOR	PACE UNIV, PO BOX 3020, 235 ELM RD, BRIARCLIFF MANOR, NY 10510-8020	0001-4273			ACAD MANAGE J	Acad. Manage. J.		1969	12	4					439	449		10.2307/254732				11	Business; Management	Business & Economics	ZL974	WOS:A1969ZL97400003					2019-01-18	
J	LUTHANS, F; WALKER, JW; HODGETTS, RM				LUTHANS, F; WALKER, JW; HODGETTS, RM			EVIDENCE ON VALIDITY OF MANAGEMENT EDUCATION	ACADEMY OF MANAGEMENT JOURNAL			English	Article									UNIV NEBRASKA,LINCOLN,NE							ALBERS HH, 1969, PRINCIPLES MANAGEMEN, P676; GORDON R., 1959, HIGHER ED BUSINESS; KAPPEL FR, 1962, WORLD COLLEGE W 0405; KOONTZ H, 1968, PRINCIPLES MANAGEMEN, P530; PIERSON FC, 1959, ED AM BUSINESSMEN, P102; Warner William Lloyd, 1955, OCCUPATIONAL MOBILIT; WARNER WL, 1955, BIG BUSINESS LEADERS; ZALAZNICK S, 1968, FORTUNE         0500, P168; 1967, DUNS REV         SEP, P36; 1953, SATURDAY REV LIT NOV, P32	10	0	0	0	1	ACAD MANAGEMENT	BRIARCLIFF MANOR	PACE UNIV, PO BOX 3020, 235 ELM RD, BRIARCLIFF MANOR, NY 10510-8020	0001-4273			ACAD MANAGE J	Acad. Manage. J.		1969	12	4					451	457		10.2307/254733				7	Business; Management	Business & Economics	ZL974	WOS:A1969ZL97400004					2019-01-18	
J	REESER, C				REESER, C			SOME POTENTIAL HUMAN PROBLEMS OF PROJECT FORM OF ORGANIZATION	ACADEMY OF MANAGEMENT JOURNAL			English	Article									UNIV HAWAII,HONOLULU,HI								0	10	10	0	1	ACAD MANAGEMENT	BRIARCLIFF MANOR	PACE UNIV, PO BOX 3020, 235 ELM RD, BRIARCLIFF MANOR, NY 10510-8020	0001-4273			ACAD MANAGE J	Acad. Manage. J.		1969	12	4					459	467		10.2307/254734				9	Business; Management	Business & Economics	ZL974	WOS:A1969ZL97400005					2019-01-18	
J	BELASCO, JA; ALUTTO, JA				BELASCO, JA; ALUTTO, JA			LINE STAFF CONFLICTS SOME EMPIRICAL INSIGHTS	ACADEMY OF MANAGEMENT JOURNAL			English	Article									SUNY BUFFALO,BUFFALO,NY							BELASCO J, IN PRESS; COLEMAN C, THESIS U NEW YORK BU; DALTON M, 1959, MEN WHO MANAGE, P52; Dalton M, 1950, AM SOCIOL REV, V15, P342, DOI 10.2307/2087175; DRUCKER PF, 1954, PRACTICE MANAGE, P273; GOLEMBIEWSKI R, 1963, PERSONNEL ADM, V8, P15; GOLEMBIEWSKI RT, 1967, ORG MEN POWER, P61; GOLEMBIEWSKI RT, 1966, J ACADEMY MANAGEMENT, V9; KOONTZ H, 1959, PRINCIPLES MANAGEMEN, P135; LEARNED EP, 1951, EXECUTIVE ACTION; LING C, 1965, PERSONNEL MANAGEMENT; MCFARLAND DE, 1963, COOPERATION CONFLICT; McGregor D, 1960, HUMAN SIDE ENTERPRIS; MINER JB, 1969, PERSONNEL IND RELATI; RITZER G, IN PRESS; RITZER G, 1969, THESIS NEW YORK SCH; Sampson R. C., 1955, STAFF ROLE MANAGEMEN; Schein E. H., 1965, PERSONAL ORG CHANGE; WHYTE WH, 1956, ORG MAN, P148	19	6	6	0	6	ACAD MANAGEMENT	BRIARCLIFF MANOR	PACE UNIV, PO BOX 3020, 235 ELM RD, BRIARCLIFF MANOR, NY 10510-8020	0001-4273			ACAD MANAGE J	Acad. Manage. J.		1969	12	4					469	477		10.2307/254735				9	Business; Management	Business & Economics	ZL974	WOS:A1969ZL97400006					2019-01-18	
J	BURKE, RJ				BURKE, RJ			EFFECTS OF AGING ON ENGINEERS SATISFACTIONS AND MENTAL HEALTH - SKILL OBSOLESCENCE	ACADEMY OF MANAGEMENT JOURNAL			English	Article									YORK UNIV,DOWNSVIEW,ONTARIO,CANADA							BURSSLIN OR, 1964, SOCIAL PROBLEMS, V12, P86; BUSHNELL DS, 1964, AUTOMATION, V11, P264; COBB S, 1966, AM J PUBLIC HLTH, V56, P1426; FRENCH JRP, 1962, J SOC ISSUES, V18, P1, DOI 10.1111/j.1540-4560.1962.tb00415.x; Gurin G., 1960, AM VIEW THEIR MENTAL; HAMMERMAN H, 1964, MON LABOR REV, V87, P663; INDIK B, 1964, J ABNORM SOC PSYCH, V69, P26, DOI 10.1037/h0040300; MANN FC, 1960, AUTOMATION WORKER ST; MARGULIES N, 1967, CALIF MANAGE REV, V10, P43, DOI 10.2307/41164102; MCCARTHY RC, 1962, MANAGEMENT REV, V51, P34; METZLER W, 1963, HUM ORGAN, V22, P142, DOI 10.17730/humo.22.2.4315137574482x64; OWEN JP, 1967, SOUTHERN ECON J, V33, P395, DOI 10.2307/1055122; PICHLER JA, 1967, MON LABOR REV, V90, P32; ROSE AM, 1964, AM J ECON SOCIOL, V23, P337, DOI 10.1111/j.1536-7150.1964.tb00967.x; SHEPPARD HL, 1965, MON LABOR REV, V88, P170; SHEPPARD HL, 1960, SPEC COMM UN PROBL U; SNYDER JI, 1963, MANAGE REV, V52, P4; VINCENT GC, 1967, CHEMICAL ENGINEERING, V74, P117; WINTHROP H, 1958, AM J ECON SOCIOL, V17, P399, DOI 10.1111/j.1536-7150.1958.tb00275.x	19	0	0	1	3	ACAD MANAGEMENT	BRIARCLIFF MANOR	PACE UNIV, PO BOX 3020, 235 ELM RD, BRIARCLIFF MANOR, NY 10510-8020	0001-4273			ACAD MANAGE J	Acad. Manage. J.		1969	12	4					479	486		10.2307/254736				8	Business; Management	Business & Economics	ZL974	WOS:A1969ZL97400007					2019-01-18	
J	ZILLER, RC; STARK, BJ; PRUDEN, HO				ZILLER, RC; STARK, BJ; PRUDEN, HO			MARGINALITY AND INTEGRATIVE MANAGEMENT POSITIONS	ACADEMY OF MANAGEMENT JOURNAL			English	Article									UNIV OREGON,EUGENE,OR; ST LOUIS UNIV,ST LOUIS,MO; UNIV TEXAS,AUSTIN,TX							CAPLOW T, 1964, PRINCIPLES ORG, P247; DAVIS K, 1967, HUMAN RELATIONS WORK, P115; DITZ GW, 1964, IND MANAGEMENT REV, V6, P54; DUBIN R, 1968, HUMAN RELATIONS ADM, P213; ETZIONI A, 1958, PAC SOCIOL REV, V1, P33; Gardner B. B., 1945, APPL ANTHROPOL, V4, P1; GOLDREN FH, 1960, ORG THEIR ENVIRONMEN; LAWRENCE PR, 1967, HARVARD BUS REV, V45, P142; PARK RE, 1950, RACE CULTURE COLLECT, P373; PRUDEN HO, 1969, ACAD MANAGE J, V12, P339, DOI 10.2307/255181; Roethlisberger FJ, 1945, HARVARD BUS REV, V23, P283; ROKEACH M, 1960, OPEN CLOSED MIND, P72; SCOTT WG, 1967, ORG THEORY BEHAVIORA, P361; STARK BJ, 1969, THESIS U OREGON, P76; STARK BJ, 1969, THESIS U OREGON, P89; STARK BJ, 1969, THESIS U OREGON, P67; STONEQUIST E, 1937, MARGINAL MAN; THOMPSON JD, 1967, ORG ACTION, P67; THOMPSON JD, 1967, ORG ACTION, P110; TRODAHL V, 1965, SOC FORCES, V44, P211, DOI DOI 10.1093/SF/44.2.211; Wray DE, 1949, AM J SOCIOL, V54, P298, DOI 10.1086/220365; WREN DA, 1967, ACAD MANAGE J, V10, P69, DOI 10.2307/255245; ZILLER RC, 1968, POLITICAL PERSONALIT; ZILLER RC, 1968, SELF OTHER ORIENTATI; ZILLER RC, 1969, SELF OTHER ORIENTATI	25	19	19	0	4	ACAD MANAGEMENT	BRIARCLIFF MANOR	PACE UNIV, PO BOX 3020, 235 ELM RD, BRIARCLIFF MANOR, NY 10510-8020	0001-4273			ACAD MANAGE J	Acad. Manage. J.		1969	12	4					487	495		10.2307/254737				9	Business; Management	Business & Economics	ZL974	WOS:A1969ZL97400008					2019-01-18	
J	DELBECQ, AL; KAPLAN, SJ				DELBECQ, AL; KAPLAN, SJ			MYTH OF INDIGENOUS COMMUNITY LEADER	ACADEMY OF MANAGEMENT JOURNAL			English	Article									UNIV TOLEDO,TOLEDO,OH							BENNIS W, 1965, BEYOND BUREAUCRACY; DELBECQ AL, 1967, SOC SOCIAL SCI; DELBECQ AL, 1966, EVALUATION TRAINING; FRENCH JPR, 1960, GROUP DYNAMICS, P607; Goffman Irving, 1959, PRESENTATION SELF EV; GOLEMBIEWSKI RT, 1962, SMALL GROUP, P128; KAHN RL, 1964, ORG STRESS, pCH19; MAIER NRF, 1963, PROBLEM SOLVING DECI; MEE JF, 1964, BUS HORIZONS, P70; SHULL FA, 1966, MATRIX STRUCTURE PRO; SMITH CG, 1964, ADM SCI Q; TAYLOR FK, 1951, J MENTAL SCI, P698; THOMPSON VA, 1965, ADM SCI Q        JUN; Whyte W-F, 1943, STREET CORNER SOC; ZELZNICK P, 1949, TVA GRASSROOTS, V3, P259	15	5	5	0	2	ACAD MANAGEMENT	BRIARCLIFF MANOR	PACE UNIV, PO BOX 3020, 235 ELM RD, BRIARCLIFF MANOR, NY 10510-8020	0001-4273			ACAD MANAGE J	Acad. Manage. J.		1968	11	1					11	25		10.2307/255193				15	Business; Management	Business & Economics	ZJ798	WOS:A1968ZJ79800002					2019-01-18	
J	DAVIS, K				DAVIS, K			EVOLVING MODELS OF ORGANIZATIONAL BEHAVIOR	ACADEMY OF MANAGEMENT JOURNAL			English	Article									ARIZONA STATE UNIV,TEMPE,AZ							BROWN RE, 1966, JUDGMENT ADM, P75; DAVIS K, 1965, IEEE TRANSACTIONS EN, P117; FLEISHMAN EA, 1951, LEADERSHIP CLIMATE; Galbraith J. K., 1958, AFFLUENT SOC; HARBISON F, 1959, MANAGEMENT INDUSTRIA, P40; Herzberg F, 1959, MOTIVATION WORK; Katz D., 1950, PRODUCTIVITY SUPERVI; LEAVITT HJ, 1962, MANAGEMENT INT, P13; LIKERT R, 1961, NEW PATTERNS MANAGEM, P102; LIKERT R, 1967, HUMAN ORG, P3; Maslow AH, 1943, PSYCHOL REV, V50, P370, DOI 10.1037/h0054346; MCGREGOR D, 1957, 5TH P ANN CONV SCH I; McGregor D, 1960, HUMAN SIDE ENTERPRIS; MCMURRY RN, 1958, HARVARD BUSINESS REV, P82; MYERS MS, 1966, HARVARD BUSINESS REV, P61; SLATER P, 1964, HARVARD BUSINESS MAR, P51; Whyte Jr William H., 1956, ORG MAN, P3	17	5	5	0	2	ACAD MANAGEMENT	BRIARCLIFF MANOR	PACE UNIV, PO BOX 3020, 235 ELM RD, BRIARCLIFF MANOR, NY 10510-8020	0001-4273			ACAD MANAGE J	Acad. Manage. J.		1968	11	1					27	38		10.2307/255194				12	Business; Management	Business & Economics	ZJ798	WOS:A1968ZJ79800003					2019-01-18	
J	SARACHEK, B				SARACHEK, B			GREEK CONCEPTS OF LEADERSHIP	ACADEMY OF MANAGEMENT JOURNAL			English	Article									UNIV MISSOURI,KANSAS CITY,MO							Aristotle, NICHOMACHEAN ETHICS; BROWN CC, 1957, DIRECTOR LOOKS HIS J; COPELAND MT, 1947, BOARD DIRECTORS BUSI, P181; EURIPIDES, HERACLES; Homer, ILIAD; OATES WJ, 1938, COMPLETE GREEK DRAMA, V1, P354	6	3	3	0	2	ACAD MANAGEMENT	BRIARCLIFF MANOR	PACE UNIV, PO BOX 3020, 235 ELM RD, BRIARCLIFF MANOR, NY 10510-8020	0001-4273			ACAD MANAGE J	Acad. Manage. J.		1968	11	1					39	48		10.2307/255195				10	Business; Management	Business & Economics	ZJ798	WOS:A1968ZJ79800004					2019-01-18	
J	EDDY, WB; BOYLES, BR; FROST, CF				EDDY, WB; BOYLES, BR; FROST, CF			MULTIVARIATE DESCRIPTION OF ORGANIZATION PROCESS	ACADEMY OF MANAGEMENT JOURNAL			English	Article									UNIV MISSOURI,KANSAS CITY,MO; MICHIGAN STATE UNIV,E LANSING,MI							ARGYRIS C, 1958, ADMIN SCI QUART, V2, P501, DOI 10.2307/2390797; BOYLES BR, 1962, THESIS MICHIGAN STAT; BOYLES BR, 1963, MAY MIDW PSYCH ASS C; EDDY WB, 1962, THESIS MICHIGAN STAT; KAISER HF, 1958, PSYCHOMETRIKA, V23, P187, DOI 10.1007/BF02289233; KATZELL RA, 1962, AM PSYCHOL, V17, P102, DOI 10.1037/h0049031; KIEL O, UNPUBLISHED; LESIEUR FG, 1958, SCANLON PLAN; NEUHAUS, 1954, BRIT J STATISTICAL P, V7, P81; STOGDILL RM, 1959, INDIVIDUAL BEHAVIOUR, P13; WRIGLEY C, 1955, J EDUC PSYCHOL, V46, P31	11	1	1	0	1	ACAD MANAGEMENT	BRIARCLIFF MANOR	PACE UNIV, PO BOX 3020, 235 ELM RD, BRIARCLIFF MANOR, NY 10510-8020	0001-4273			ACAD MANAGE J	Acad. Manage. J.		1968	11	1					49	61		10.2307/255196				13	Business; Management	Business & Economics	ZJ798	WOS:A1968ZJ79800005					2019-01-18	
J	CHUNG, KH				CHUNG, KH			DEVELOPING A COMPREHENSIVE MODEL OF MOTIVATION AND PERFORMANCE	ACADEMY OF MANAGEMENT JOURNAL			English	Article									NO ILLINOIS UNIV,DEKALB,IL							ATKINSON JW, 1964, INTRO MOTIVATION, P242; HICKS HG, 1967, MANAGEMENT ORGANIZAT, P40; INDIK BP, 1966, PERSONNEL ADM, P42; LAWLER EE, 1966, PERSONNEL PSYCHOL, P153; MAIER NRF, 1955, PSYCHOLOGY IND, P203; MAJUMDAR T, 1958, MEASUREMENT UTILITY, P78; VROOM VH, 1960, SOME PERSONALITY DET, P50	7	4	4	2	3	ACAD MANAGEMENT	BRIARCLIFF MANOR	PACE UNIV, PO BOX 3020, 235 ELM RD, BRIARCLIFF MANOR, NY 10510-8020	0001-4273			ACAD MANAGE J	Acad. Manage. J.		1968	11	1					63	73		10.2307/255197				11	Business; Management	Business & Economics	ZJ798	WOS:A1968ZJ79800006					2019-01-18	
J	ALLEN, RW				ALLEN, RW			STAFFING PRACTICES AND PROBLEMS OF BUSINESS UNITS IN CALIFORNIA STATE COLLEGE SYSTEM	ACADEMY OF MANAGEMENT JOURNAL			English	Article									CREIGHTON UNIV,OMAHA,NE							*CA STAT COLL ACAD, 1965, SUMM ACT; CHAMBERLAIN NW, 1962, FIRM MICRO EC PLANNI, P6; CORSON JJ, 1960, GOVERNANCE COLLEGES, P4; FISK M, 1965, COMMUNICATION    SPR; GOODING EC, 1964, NEW ENGLAND BUSINESS, P11; KEENE CM, 1964, COMMUNICATION   1208, P6; 1965, 2ND ANN REP GOV LEG, P12; 1964, FEB ANN REP GOV LEG, P2; 1963, FACULTY SALARY CRISE, P2	9	0	0	0	1	ACAD MANAGEMENT	BRIARCLIFF MANOR	PACE UNIV, PO BOX 3020, 235 ELM RD, BRIARCLIFF MANOR, NY 10510-8020	0001-4273			ACAD MANAGE J	Acad. Manage. J.		1968	11	1					75	89		10.2307/255198				15	Business; Management	Business & Economics	ZJ798	WOS:A1968ZJ79800007					2019-01-18	
J	FLIPPO, EB				FLIPPO, EB			INTEGRATIVE SCHEMES IN MANAGEMENT THEORY	ACADEMY OF MANAGEMENT JOURNAL			English	Article									UNIV ARIZONA,TEMPE,AZ							ARGYRIS C, 1964, INTEGRATING INDIVIDU, P150; Argyris C., 1957, PERSONALITY ORG; BAKKE EW, 1953, FUSION PROCESS; BLAKE RR, 1964, HARVARD BUS REV, V42, P133; BLAKE RR, 1964, MANAGING INTERGROUP; FLIPPO EB, 1966, MANAGEMENT BEHAVIORA, P476; GORDON PJ, 1966, J ACADEMY MANAGEMENT, P175; KOONTZ H, 1962, HARVARD BUSINESS JUI, P24; LIKERT R, 1958, HARVARD BUSINESS REV, P49; Likert R., 1961, NEW PATTERNS MANAGEM; MAIER NRF, 1962, CREATIVE MANAGEMENT; MCGREGOR D, 1960, HUMAN SIDE ENTERPRIS, pCH4	12	1	1	0	1	ACAD MANAGEMENT	BRIARCLIFF MANOR	PACE UNIV, PO BOX 3020, 235 ELM RD, BRIARCLIFF MANOR, NY 10510-8020	0001-4273			ACAD MANAGE J	Acad. Manage. J.		1968	11	1					91	98		10.2307/255199				8	Business; Management	Business & Economics	ZJ798	WOS:A1968ZJ79800008					2019-01-18	
J	BEHLING, O; LABOVITZ, G; KOSMO, R				BEHLING, O; LABOVITZ, G; KOSMO, R			HERZBERG CONTROVERSY - CRITICAL REAPPRAISAL	ACADEMY OF MANAGEMENT JOURNAL			English	Article									OHIO STATE UNIV,COLUMBUS,OH							BURKE R, 1960, J APPLIED PSYCHOLOGY, V50, P317; DUNNETTE J, 1967, ORG BEHAVIOR HUMAN P, V2, P143; EWEN RB, 1964, J APPL PSYCHOL, V48, P161, DOI 10.1037/h0048383; EWEN RB, 1966, J APPL PSYCHOL, V50, P544, DOI 10.1037/h0024042; FRIEDLANDER F, 1963, J APPL PSYCHOL, V47, P246, DOI 10.1037/h0041449; FRIEDLANDER F, 1964, J APPL PSYCHOL, V48, P388, DOI 10.1037/h0045232; GORDON GG, 1965, AM PSYCHOL, V20, P499; GRAEN GB, 1966, J APPL PSYCHOL, V50, P551, DOI 10.1037/h0024043; HALPERN G, 1966, J APPL PSYCHOL, V50, P198, DOI 10.1037/h0023421; HEINRICHS J, 1967, J APPLIED PSYCHOLOGY, V51, P191; Herzberg F, 1959, MOTIVATION WORK; Herzberg F., 1966, WORK NATURE MAN; Herzberg F, 1964, PERS ADMIN, V27, P3; HULIN CL, 1967, J APPL PSYCHOL, V51, P396, DOI 10.1037/h0025094; KOSMO R, 1967, THESIS OHIO STATE U; LINDSAY CA, 1967, J APPL PSYCHOL, V51, P330, DOI 10.1037/h0024868; MALINOVSKY MR, 1965, J APPL PSYCHOL, V49, P446, DOI 10.1037/h0022807; SCHWARTZ P, 1959, ATTITUDES MIDDLE MAN; VROOM V, WORK MOTIVATION, P129; WERNIMONT PF, 1966, J APPL PSYCHOL, V50, P41, DOI 10.1037/h0022938	20	17	17	0	2	ACAD MANAGEMENT	BRIARCLIFF MANOR	PACE UNIV, PO BOX 3020, 235 ELM RD, BRIARCLIFF MANOR, NY 10510-8020	0001-4273			ACAD MANAGE J	Acad. Manage. J.		1968	11	1					99	101		10.2307/255200				3	Business; Management	Business & Economics	ZJ798	WOS:A1968ZJ79800009					2019-01-18	
J	GLUECK, WF				GLUECK, WF			APPLIED ORGANIZATION ANALYSIS - REPLY	ACADEMY OF MANAGEMENT JOURNAL			English	Article									UNIV TEXAS,AUSTIN,TX								0	0	0	0	3	ACAD MANAGEMENT	BRIARCLIFF MANOR	PACE UNIV, PO BOX 3020, 235 ELM RD, BRIARCLIFF MANOR, NY 10510-8020	0001-4273			ACAD MANAGE J	Acad. Manage. J.		1968	11	1					116	116						1	Business; Management	Business & Economics	ZJ798	WOS:A1968ZJ79800012					2019-01-18	
J	MACY, JW				MACY, JW			FUTURE - MANAGEMENT IN PUBLIC INTEREST	ACADEMY OF MANAGEMENT JOURNAL			English	Article									US CIVIL SERV COMMISS,WASHINGTON,DC								0	0	0	0	1	ACAD MANAGEMENT	BRIARCLIFF MANOR	PACE UNIV, PO BOX 3020, 235 ELM RD, BRIARCLIFF MANOR, NY 10510-8020	0001-4273			ACAD MANAGE J	Acad. Manage. J.		1968	11	2					146	151						6	Business; Management	Business & Economics	ZJ799	WOS:A1968ZJ79900002					2019-01-18	
J	DAVIS, K				DAVIS, K			ATTITUDES TOWARD LEGITIMACY OF MANAGEMENT EFFORTS TO INFLUENCE EMPLOYEES	ACADEMY OF MANAGEMENT JOURNAL			English	Article									ARIZONA STATE UNIV,TEMPE,AZ							DAVIS K, 1966, BUSINESS ENV, P132; DERBER M, 1963, IND LABOR RELAT  OCT, P59; HAIRE M, 1963, IND RELAT, V2, P95, DOI 10.1111/j.1468-232X.1963.tb00283.x; Haire M., 1966, MANAGERIAL THINKING; HARBISON F, 1959, MANAGEMENT INDUSTRIA, P40; *NATL PLANN ASS, 1953, FUND LAB PEAC FIN RE, P93; PACKARD V, 1964, NAKED SOC; RIM Y, 1964, PERSONNEL PSYCH  SUM, P149; SCHEIN EH, 1966, J APPL BEHAV SCI, V2, P199, DOI 10.1177/002188636600200207; SCHEIN EH, 1962, AM J SOC, P682; SUSSMAN AM, 1964, ILR RES, V10, P3; WALTON R, 1965, BEHAVIORAL THEORY LA; WARD JW, 1964, BUSINESS ESTABLISHME, P37; Whyte W. H., 1956, ORG MAN	14	3	3	0	1	ACAD MANAGEMENT	BRIARCLIFF MANOR	PACE UNIV, PO BOX 3020, 235 ELM RD, BRIARCLIFF MANOR, NY 10510-8020	0001-4273			ACAD MANAGE J	Acad. Manage. J.		1968	11	2					153	162		10.2307/255253				10	Business; Management	Business & Economics	ZJ799	WOS:A1968ZJ79900003					2019-01-18	
J	GORE, GJ				GORE, GJ			MANAGEMENT INTERNSHIP	ACADEMY OF MANAGEMENT JOURNAL			English	Article									UNIV CINCINNATI,CINCINNATI,OH							*COLL PLAC COUNC, 1967, SAL SURV, P4; HATCHER H, 1967, JAN COOP ED BANQ DET; JOHNSON, 1967, MESSAGE ED HLTH AM C; WILSON JW, 1961, WORK STUDY COLLEGE P; 1968, US NEWS WORLD R 0119, P99	5	0	0	1	3	ACAD MANAGEMENT	BRIARCLIFF MANOR	PACE UNIV, PO BOX 3020, 235 ELM RD, BRIARCLIFF MANOR, NY 10510-8020	0001-4273			ACAD MANAGE J	Acad. Manage. J.		1968	11	2					163	176		10.2307/255254				14	Business; Management	Business & Economics	ZJ799	WOS:A1968ZJ79900004					2019-01-18	
J	DUNNETTE, MD; BROWN, ZM				DUNNETTE, MD; BROWN, ZM			BEHAVIORAL SCIENCE RESEARCH AND CONDUCT OF BUSINESS	ACADEMY OF MANAGEMENT JOURNAL			English	Article									UNIV MINNESOTA,MINNEAPOLIS,MN							BASS BM, 1965, ORG PSYCHOLOGY; DUNNETTE MD, 1963, IND RELAT, V2, P115, DOI 10.1111/j.1468-232X.1963.tb00292.x; GRUENBERGER F, 1964, SCIENCE, V145, P1413, DOI 10.1126/science.145.3639.1413; LEAVITT HJ, 1964, ANNU REV PSYCHOL, V15, P371, DOI 10.1146/annurev.ps.15.020164.002103	4	9	9	0	2	ACAD MANAGEMENT	BRIARCLIFF MANOR	PACE UNIV, PO BOX 3020, 235 ELM RD, BRIARCLIFF MANOR, NY 10510-8020	0001-4273			ACAD MANAGE J	Acad. Manage. J.		1968	11	2					177	188		10.2307/255255				12	Business; Management	Business & Economics	ZJ799	WOS:A1968ZJ79900005					2019-01-18	
J	SARACHEK, B				SARACHEK, B			MAYO E SOCIAL PSYCHOLOGY AND HUMAN RELATIONS	ACADEMY OF MANAGEMENT JOURNAL			English	Article									UNIV MISSOURI,KANSAS CITY,MO							ARGYRIS C, PERSONALITY ORG, P200; DICKSON WJ, 1966, COUNSELING ORG, P181; FREUD, 3 CONTRIBUT THEO; FREUD S, TOTEM TA300; FREUD S, EGO ID; GINZBERG E, 1957, EFFECTING CHANGE LAR, P44; LAWRENCE PR, 1958, CHANGING ORG BEHAVIO; LINDNER R, 1947, PRESCRIPTION REBELLI; Maslow A. H., 1965, EUPSYCHIAN MANAGEMEN; MAYO E, 1941, PERSONNEL, V17, P264; MAYO E, 1947, POLITICAL PROBLEM IN; MAYO E, 1960, HUMAN PROBLEMS IND C, P136; Mayo E, 1937, AM J SOCIOL, V42, P825, DOI 10.1086/217585; ORTEGAYGASSET J, 1957, MAN PEOPLE; ZALEZNIK A, 1966, HUMAN DILEMMAS LEADE, P7; Zaleznik A., 1958, MOTIVATION PRODUCTIV; ZALEZNIK A, 1956, WORKER SATISFACTION, P103	17	3	3	0	1	ACAD MANAGEMENT	BRIARCLIFF MANOR	PACE UNIV, PO BOX 3020, 235 ELM RD, BRIARCLIFF MANOR, NY 10510-8020	0001-4273			ACAD MANAGE J	Acad. Manage. J.		1968	11	2					189	197		10.2307/255256				9	Business; Management	Business & Economics	ZJ799	WOS:A1968ZJ79900006					2019-01-18	
J	GOLEMBIEWSKI, RT; BLUMBERG, A				GOLEMBIEWSKI, RT; BLUMBERG, A			LABORATORY APPROACH TO ORGANIZATION CHANGE - CONFRONTATION DESIGN	ACADEMY OF MANAGEMENT JOURNAL			English	Article									SYRACUSE UNIV,SYRACUSE,NY; UNIV GEORGIA,ATHENS,GA							GOLEMBIEWSKI, 1967, J APPL BEHAV SCI, V3, P534; Golembiewski R., 1962, THE SMALL GROUP; GOLEMBIEWSKI RT, 1967, TRAIN DEV J, V21, P35; GOLEMBIEWSKI RT, 1967, J APPL BEHAV SCI, V3, P525, DOI 10.1177/002188636700300407; GOLEMBIEWSKI RT, 1967, PUBLIC ADM REV, V26, P211	5	8	8	1	2	ACAD MANAGEMENT	BRIARCLIFF MANOR	PACE UNIV, PO BOX 3020, 235 ELM RD, BRIARCLIFF MANOR, NY 10510-8020	0001-4273			ACAD MANAGE J	Acad. Manage. J.		1968	11	2					199	210		10.2307/255257				12	Business; Management	Business & Economics	ZJ799	WOS:A1968ZJ79900007					2019-01-18	
J	HODGETTS, RM				HODGETTS, RM			LEADERSHIP TECHNIQUES IN PROJECT ORGANIZATION	ACADEMY OF MANAGEMENT JOURNAL			English	Article									UNIV NEBRASKA,LINCOLN,NC							CLELAND DI, 1964, BUSINESS HORIZONS, V7, P84; HODGETTS RM, 1968, THESIS U OKLAHOMA, P174	2	16	17	0	1	ACAD MANAGEMENT	BRIARCLIFF MANOR	PACE UNIV, PO BOX 3020, 235 ELM RD, BRIARCLIFF MANOR, NY 10510-8020	0001-4273			ACAD MANAGE J	Acad. Manage. J.		1968	11	2					211	219		10.2307/255258				9	Business; Management	Business & Economics	ZJ799	WOS:A1968ZJ79900008					2019-01-18	
J	OWENS, BD				OWENS, BD			DECISION THEORY IN ACADEMIC ADMINISTRATION	ACADEMY OF MANAGEMENT JOURNAL			English	Article									BOWLING GREEN STATE UNIV,BOWLING GREEN,OH							BIERMAN, 1966, QUANTITATIVE ANAL BU, P55; BROSS IDJ, 1953, DESIGN DECISION; COOPER JD, 1961, ART DECISION MAKING, P1; GROSSMAN AJ, 1963, P CIOS 13 MANAGEMENT, V13, P239; RICHARDS MD, 1966, MANAGEMENT DECISION, V3, P61; WHITING CS, 1955, ADV MANAGEMENT, V20, P24	6	0	0	0	1	ACAD MANAGEMENT	BRIARCLIFF MANOR	PACE UNIV, PO BOX 3020, 235 ELM RD, BRIARCLIFF MANOR, NY 10510-8020	0001-4273			ACAD MANAGE J	Acad. Manage. J.		1968	11	2					221	232		10.2307/255259				12	Business; Management	Business & Economics	ZJ799	WOS:A1968ZJ79900009					2019-01-18	
J	WICKESBERG, AK				WICKESBERG, AK			COMMUNICATIONS NETWORKS IN BUSINESS ORGANIZATION STRUCTURE	ACADEMY OF MANAGEMENT JOURNAL			English	Article									UNIV MINNESOTA,MINNEAPOLIS,MN							Burns T, 1954, HUM RELAT, V7, P73, DOI 10.1177/001872675400700104; DUBIN R, 1962, SOCIAL SCI APPROACHE, P11; GUETZKOW H, 1957, SOCIOMETRY, V20, P175, DOI 10.2307/2785672; LEAVITT HJ, 1951, J ABNORM SOC PSYCH, V46, P38, DOI 10.1037/h0057189; PONDER Q, 1958, THESIS COLUMBIA U; SAYLES LR, 1964, MANAGERIAL BEHAVIOR; Walker C., 1956, FOREMAN ASSEMBLY LIN	7	9	9	0	5	ACAD MANAGEMENT	BRIARCLIFF MANOR	PACE UNIV, PO BOX 3020, 235 ELM RD, BRIARCLIFF MANOR, NY 10510-8020	0001-4273			ACAD MANAGE J	Acad. Manage. J.		1968	11	3					253	262		10.2307/254751				10	Business; Management	Business & Economics	ZJ800	WOS:A1968ZJ80000002					2019-01-18	
J	COOK, DM				COOK, DM			IMPACT ON MANAGERS OF FREQUENCY OF FEEDBACK	ACADEMY OF MANAGEMENT JOURNAL			English	Article									UNIV ARKANSAS,LITTLE ROCK,AR							AMMONS RB, 1956, J GEN PSYCHOL, V54, P279, DOI 10.1080/00221309.1956.9920284; Argyris C, 1952, IMPACT BUDGETS PEOPL; BECKER S, 1962, J BUSINESS       OCT, P392; CHILD I, 1954, STUDY PERSONALITY, P495; DIGGORY JC, 1948, AM J PSYCHOLOGY, P48; ELWELL JL, 1938, BRIT J PSYCHOLOGY, P53; LEAVITT HJ, 1951, HUMAN RELATIONS, P401; Lewin K, 1944, PERS BEHAV, V1, P333, DOI DOI 10.1037/10319-006; MOULTON RW, 1965, J PERS SOC PSYCHOL, V1, P399, DOI 10.1037/h0021749; SALTZMAN II, 1951, J EXPT PSYCHOLOGY, V41, P438; Stedry A, 1960, BUDGET CONTROL COST; ZANDER A, 1963, HUM RELAT, V16, P89, DOI 10.1177/001872676301600105	12	15	15	0	1	ACAD MANAGEMENT	BRIARCLIFF MANOR	PACE UNIV, PO BOX 3020, 235 ELM RD, BRIARCLIFF MANOR, NY 10510-8020	0001-4273			ACAD MANAGE J	Acad. Manage. J.		1968	11	3					263	277		10.2307/254752				15	Business; Management	Business & Economics	ZJ800	WOS:A1968ZJ80000003					2019-01-18	
J	YOON, BM				YOON, BM			MANAGEMENT DISCIPLINE IN A SCHOOL OF ADMINISTRATION - REAPPRAISAL IN PUBLIC SERVICE PERSPECTIVE	ACADEMY OF MANAGEMENT JOURNAL			English	Article									FORDHAM UNIV,NEW YORK,NY							*AC MAN, 1967, REP COMP ADM TASK FU; BOULDING KE, 1956, MANAGE SCI, V2, P197, DOI 10.1287/mnsc.2.3.197; CALDWELL, 1963, SUPPLEMENT WESTERN P, V16, P5; CALDWELL L, 1965, PUBLIC ADM REV, V25, P56; GORDON PJ, 1967, ACAD MANAGE J, V10, P351, DOI 10.2307/255268; GORDON RA, 1959, HIGHER ED BUSINESS, P17; HONEY JC, 1967, PUBLIC ADM REV, V27, P300; LEBRETON PP, 1967, 26TH P ANN M; METCALF H, 1940, DYNAMIC ADM, P16; MILES RE, 1967, PUBLIC ADMIN REV, V27, P345; PAP A, 1949, ELEMENTS ANAL PHILOS, P2; SIMON HA, 1945, ADM BEHAVIOR, pR44; STEWART W, 1961, GRADUATE STUDY PUBLI, P10; VANRIPER, PUBLIC ADM REV, P340; WARNER WL, 1963, AM FEDERAL EXECUTIVE, P120; WEBER M, 1949, SOC ANAL, P7; WENGERT ES, 1961, STUDY ADM; WILSON W, 1887, POLITICAL SCI Q, P197; YOON BM, 1965, ANN C AM ASS COLL SC; 1962, AM POLITICAL SCI REV, P417	20	1	1	0	2	ACAD MANAGEMENT	BRIARCLIFF MANOR	PACE UNIV, PO BOX 3020, 235 ELM RD, BRIARCLIFF MANOR, NY 10510-8020	0001-4273			ACAD MANAGE J	Acad. Manage. J.		1968	11	3					279	289		10.2307/254753				11	Business; Management	Business & Economics	ZJ800	WOS:A1968ZJ80000004					2019-01-18	
J	GRAHAM, GH				GRAHAM, GH			CORRELATES OF PERCEIVED IMPORTANCE OF ORGANIZATIONAL OBJECTIVES	ACADEMY OF MANAGEMENT JOURNAL			English	Article									WICHITA STATE UNIV,WICHITA,KS							BERELSON B, 1964, HUMAN BEHAVIOR INVEN, P112; CANTRIL H, 1942, PSYCHOLOGY SOCIAL MO; DEARBORN DC, 1958, SOCIOMETRY, V21, P140, DOI 10.2307/2785898; GEORGOPOULOUS BS, 1965, HUMAN RELATIONS, V18, P164; HAIRE M, 1964, PSYCHOLOGY MANAGEMEN, P52; HICKS HG, 1967, MANAGEMENT ORG, P51; KELLEY HH, 1950, J PERS, V18, P431, DOI 10.1111/j.1467-6494.1950.tb01260.x; LITTERER JA, 1965, ANAL ORG, P148; MARCH JG, 1958, ORGANIZATIONS, P10; NEWMAN WH, 1962, PROCESS MANAGEMENT, P136; PORTER LW, 1958, J APPL PSYCHOL, V42, P105, DOI 10.1037/h0046713; RAVEN BH, 1957, HUM RELAT, V10, P29, DOI 10.1177/001872675701000102; SHERIF M, 1936, PSYCHOLOGY SOCIAL NO, P95; Stagner R, 1948, PERS PSYCHOL, V1, P131, DOI 10.1111/j.1744-6570.1948.tb01301.x; YOUNG K, 1956, SOCIAL PSYCHOLOGY, P59	15	2	2	0	2	ACAD MANAGEMENT	BRIARCLIFF MANOR	PACE UNIV, PO BOX 3020, 235 ELM RD, BRIARCLIFF MANOR, NY 10510-8020	0001-4273			ACAD MANAGE J	Acad. Manage. J.		1968	11	3					291	300		10.2307/254754				10	Business; Management	Business & Economics	ZJ800	WOS:A1968ZJ80000005					2019-01-18	
J	SCOTT, WG				SCOTT, WG			TECHNOLOGY AND ORGANIZATION GOVERNMENT - SPECULATIVE INQUIRY INTO FUNCTIONALITY OF MANAGEMENT CREEDS	ACADEMY OF MANAGEMENT JOURNAL			English	Article									UNIV WASHINGTON,SEATTLE,WA							ARGYRIS C, 1967, THINK            NOV, P18; BENNIS WG, 1966, CHANGING ORGANIZATIO, P4; EELLS R, 1962, GOVERNMENT CORPORATI, P32; Ellul J., 1965, TECHNOLOGICAL SOC; GINSBERG M, 1961, HUMANIST FRAME, P113; Leavitt H. J., 1965, HDB ORG, P1144; MERRIAM CE, 1938, NEW DEMOCRACY NEW DE, P12; VONBERTALANFFY L, 1967, ROBOTS MEN MINDS, P13; WOODWARD J, 1965, IND ORG THEORY PRACT, P35; 1965, SCI AM, P1	10	3	3	0	1	ACAD MANAGEMENT	BRIARCLIFF MANOR	PACE UNIV, PO BOX 3020, 235 ELM RD, BRIARCLIFF MANOR, NY 10510-8020	0001-4273			ACAD MANAGE J	Acad. Manage. J.		1968	11	3					301	313		10.2307/254755				13	Business; Management	Business & Economics	ZJ800	WOS:A1968ZJ80000006					2019-01-18	
J	LITSCHERT, RJ				LITSCHERT, RJ			SOME CHARACTERISTICS OF LONG-RANGE PLANNING - INDUSTRY STUDY	ACADEMY OF MANAGEMENT JOURNAL			English	Article									VIRGINIA POLYTECH INST,BLACKSBURG,VA							ANSOFF HI, 1967, HARVARD BUSINESS REV, V45, P76; Ansoff HI, 1965, CORPORATE STRATEGY; BOCK RH, 1961, THESIS PURDUE U; BOCK RH, 1960, LONG RANGE PLANNING; BRANCH MC, 1958, OPERATIONS RES, V6, P563; BRANCH MC, 1958, OPERATIONS RES, V6, P551; EWING DW, 1956, HARVARD BUS REV, V34, P135; GREENWOOD F, 1963, THESIS U CALIFORNIA; HILL WF, 1956, MANAGEMENT REV, V45, P1082; HOOPER T, 1962, BUSINESS HORIZONS, V5, P61; NEWELL WT, 1962, THESIS U TEXAS; Scott B.W, 1965, LONG RANGE PLANNING; SCOTT DH, 1960, SALES MANAGEMENT, V85, P39; SHELLY T, 1958, BUSINESS HORIZONS, V1, P77; SORD BH, 1958, BUSINESS BUDGETING S; Steiner G. A., 1966, MULTINATIONAL CORPOR; STEINER GA, 1963, MANAGERIAL LONG RANG; STEINER GA, 1962, CALIFORNIA MANAGEMEN, V4, P32; THOMPSON S, 1962, HOW COMPANIES PLAN	19	9	9	0	1	ACAD MANAGEMENT	BRIARCLIFF MANOR	PACE UNIV, PO BOX 3020, 235 ELM RD, BRIARCLIFF MANOR, NY 10510-8020	0001-4273			ACAD MANAGE J	Acad. Manage. J.		1968	11	3					315	328		10.2307/254756				14	Business; Management	Business & Economics	ZJ800	WOS:A1968ZJ80000007					2019-01-18	
J	MAURER, JG				MAURER, JG			WORK AS A CENTRAL LIFE INTEREST OF INDUSTRIAL SUPERVISORS	ACADEMY OF MANAGEMENT JOURNAL			English	Article									WAYNE STATE UNIV,DETROIT,MI							ARGYRIS C, 1964, INTEGRATING INDIVIDU, P54; ARGYRIS C, 1957, PERSONALITY ORG, P93; BERGER B, 1963, WORK LEISURE, P35; BLAUNER R, 1964, ALIENATION FREEDOM, P26; BLAUNER R, 1964, ALIENATION FREEDOM, P183; DILL WR, 1964, NEW PERSPECTIVES ORG, P48; DUBIN R, 1958, WORLD WORK, P187; DUBIN R, 1963, WORK LEISURE, P58; DUBIN R, 1958, 11TH P ANN M, V11, P161; ETZIONI A, 1961, COMP ANAL COMPLEX OR, P53; FAUNCE W, 1959, SEP M AM SOC ASS; GURIN G, 1960, AM VIEW THEIR MENTAL, P86; HALLER AO, 1963, OCCUPATIONAL ASPIRAT, P98; KATZ D, 1966, SOCIAL PSYCHOLOGY OR, P337; KATZ FE, 1965, ADM SCI Q, V10, P205; KORNHAUSER A, 1965, MENTAL HLTH IND WORK, P328; KRUPP S, 1961, PATTERN ORG ANAL, P45; LODAHL T, 1964, ADM SCI Q, V8, P488; LODAHL TM, 1965, J APPL PSYCHOL, V49, P24, DOI 10.1037/h0021692; NELSON CH, 1962, THESIS MICHIGAN STAT, P70; ORZACK LH, 1959, SOC PROBL, V7, P125, DOI 10.1525/sp.1959.7.2.03a00040; PARKER SR, 1965, SOCIOL REV, V13, P65, DOI 10.1111/j.1467-954X.1965.tb01129.x; PFIFFNER JM, 1960, ADM ORG, P351; PRESTHUS R, 1965, ORG SOC, P234; PRESTHUS R, 1965, ORG SOC, P205; VROOM V, 1962, PERSONNEL PSYCHOLOGY, V15, P161; WILENSKY H, 1964, MAN WORLD WORK, P151; WILENSKY H, 1964, MAN WORLD WORK, P140	28	16	16	0	1	ACAD MANAGEMENT	BRIARCLIFF MANOR	PACE UNIV, PO BOX 3020, 235 ELM RD, BRIARCLIFF MANOR, NY 10510-8020	0001-4273			ACAD MANAGE J	Acad. Manage. J.		1968	11	3					329	339		10.2307/254757				11	Business; Management	Business & Economics	ZJ800	WOS:A1968ZJ80000008					2019-01-18	
J	KUIN, P				KUIN, P			MANAGEMENT PERFORMANCE IN BUSINESS AND PUBLIC ADMINISTRATION	ACADEMY OF MANAGEMENT JOURNAL			English	Article									UNILEVER NV,ROTTERDAM,NETHERLANDS								0	1	2	1	4	ACAD MANAGEMENT	BRIARCLIFF MANOR	PACE UNIV, PO BOX 3020, 235 ELM RD, BRIARCLIFF MANOR, NY 10510-8020	0001-4273			ACAD MANAGE J	Acad. Manage. J.		1968	11	4					371	377		10.2307/254886				7	Business; Management	Business & Economics	ZJ801	WOS:A1968ZJ80100002					2019-01-18	
J	DAVIS, K				DAVIS, K			SUCCESS OF CHAIN-OF-COMMAND ORAL COMMUNICATION IN A MANUFACTURING MANAGEMENT GROUP	ACADEMY OF MANAGEMENT JOURNAL			English	Article									ARIZONA STATE UNIV,TEMPE,AZ							BROWN W, 1964, TOWARD UNIFIED THEOR, P125; DAVIS K, 1953, PERSONNEL PSYCHOL, P301; DAVIS K, 1943, HARVARD BUSINESS REV, P46; GARDNER BB, 1964, HUMAN RELATIONS IND, P229; Likert R., 1967, HUMAN ORG ITS MANAGE, P13; Likert Rensis, 1961, NEW PATTERNS MANAGE, P113; SANBORN GA, 1961, THESIS PURDUE U, P312; SUTTON H, 1968, PERS PSYCHOL, P223; WICKESBERG AK, 1968, ACADEMY MANAGEMENT S, P256; 1966, PERSONNEL J      APR, P237	10	10	10	1	6	ACAD MANAGEMENT	BRIARCLIFF MANOR	PACE UNIV, PO BOX 3020, 235 ELM RD, BRIARCLIFF MANOR, NY 10510-8020	0001-4273			ACAD MANAGE J	Acad. Manage. J.		1968	11	4					379	387		10.2307/254887				9	Business; Management	Business & Economics	ZJ801	WOS:A1968ZJ80100003					2019-01-18	
J	WRIGHT, R				WRIGHT, R			APPLICATION OF A CONCEPTUAL SCHEME TO UNDERSTAND ORGANIZATION CHARACTER	ACADEMY OF MANAGEMENT JOURNAL			English	Article									ARIZONA STATE UNIV,TEMPE,AZ							Angyal A, 1965, NEUROSIS TREATMENT H; *ASS CONS ENG, 1957, COMM BOD KNOWL REQ P, P36; BRUNER JS, 1956, STUD THINKING, P1; HELMER O, 1959, MANAGE SCI, V6, P25, DOI 10.1287/mnsc.6.1.25; HOMAN GC, 1950, HUMAN GROUP, P91; JARVIE IC, 1964, REVOLUTION ANTHR, P220; JASPERS K, 1963, GENERAL PSYCHOPATHOL; KATZ D, 1966, SOC PSYCHOLOGY ORG; KRETCH, 1948, THEORY PROBLEMS SOCI; LARRABIE HA, 1964, RELIABLE KNOWLEDGE, P340; LONGENECKER JG, 1964, PRINCIPLES MANAGEMEN, P313; MCGUIRE JW, 1963, BUSINESS SOC, P160; Newman WH, 1953, J BUS UNIV CHIC, V26, P211, DOI 10.1086/233118; PRESTHUS R, 1962, ORG SOC, P94; SCOTT WG, 1961, J ACADEMY MANAGEMENT, V4, P25; SELLS GB, 1964, NEW PERSPECTIVE ORG, P515; SELZNICK P, 1948, AM SOC REV, V13, P30; WALKER M, 1963, NATURE SCI THOUGHT, P25; WERTHEIMER, 1945, PRODUCTIVE THINKING, P43; WOLF WB, 1958, J ACAD MANAGEMENT, V1, P7; 1964, MANAGEMENT; 1961, MANAGEMENT PERSONNEL, P43	22	0	0	0	1	ACAD MANAGEMENT	BRIARCLIFF MANOR	PACE UNIV, PO BOX 3020, 235 ELM RD, BRIARCLIFF MANOR, NY 10510-8020	0001-4273			ACAD MANAGE J	Acad. Manage. J.		1968	11	4					389	399		10.2307/254888				11	Business; Management	Business & Economics	ZJ801	WOS:A1968ZJ80100004					2019-01-18	
J	ROBERTS, K; MILES, RE; BLANKENSHIP, LV				ROBERTS, K; MILES, RE; BLANKENSHIP, LV			ORGANIZATIONAL LEADERSHIP SATISFACTION AND PRODUCTIVITY - COMPARATIVE ANALYSIS	ACADEMY OF MANAGEMENT JOURNAL			English	Article									SUNY BUFFALO,BUFFALO,NY; UNIV CALIF BERKELEY,BERKELEY,CA							FIEDLER FE, 1958, LEADER ATTITUDES GRO; FIEDLER FE, 1966, PROBLEMS SOCIAL PSYC; FLEISHMAN EA, 1962, PERS PSYCHOL, V15, P43, DOI 10.1111/j.1744-6570.1962.tb01845.x; FLEISHMAN EA, 1955, LEADERSHIP SUPERVISI; Kahn R., 1960, GROUP DYNAMICS RES T; Likert R., 1967, HUMAN ORG MANAGEMENT; Likert R., 1961, NEW PATTERNS MANAGEM; McGregor D, 1960, HUMAN SIDE ENTERPRIS; MILES RE, 1965, HARVARD BUS REV, V43, P148; MILES RE, 1964, IND RELAT, V4, P77, DOI 10.1111/j.1468-232X.1964.tb00913.x; MILES RE, 1962, AM J PUBLIC HLTH, V56, P1990; PORTER L, 1968, MANEGARIAL ATTITUDES; SIEGEL S, 1956, NON PARAMETRIC STATI; STOGDILL RM, 1957, LEADER BEHAVIOR DESC; VROOM V, 1960, PERSONNEL PSYCHOLOGY, V13, P115	15	12	12	0	2	ACAD MANAGEMENT	BRIARCLIFF MANOR	PACE UNIV, PO BOX 3020, 235 ELM RD, BRIARCLIFF MANOR, NY 10510-8020	0001-4273			ACAD MANAGE J	Acad. Manage. J.		1968	11	4					401	414		10.2307/254889				14	Business; Management	Business & Economics	ZJ801	WOS:A1968ZJ80100005					2019-01-18	
J	TOSI, HL; CARROLL, SJ				TOSI, HL; CARROLL, SJ			MANAGERIAL REACTION TO MANAGEMENT BY OBJECTIVES	ACADEMY OF MANAGEMENT JOURNAL			English	Article									MICHIGAN STATE UNIV,E LANSING,MI; UNIV MARYLAND,COLLEGE PK,MD							BATTEN JD, 1966, BEYOND MANAGEMENT OB; DRUCKER P, 1957, HARVARD BUSINESS REV; FRENCH W, PERSONNEL MANAGEMENT; HUGHES CL, 1966, GOAL SETTING; MENDLESON JL, 1967, THESIS MICHIGAN STAT; MEYER HH, 1965, HARVARD BUS REV, V43, P123; MILLER EC, 1968, OBJECTIVES STANDARD; Odiorne G. S., 1965, MANAGEMENT OBJECTIVE; PIGORS P, 1965, PERSONNEL ADM; RAIA A, 1966, CALIFORNIA MANAG SUM, P49; Raia A. P., 1965, J MANAGE STUD, V2, P34; STEWART N, 1966, STRATEGIES MANAGING; STRAUSS G, 1967, PERSONNEL; TOSI HL, 1965, MANAGEMENT PERSONNEL, V4; VALENTINE RF, 1966, PERFORMANCE OBJECTIV	15	30	30	0	5	ACAD MANAGEMENT	BRIARCLIFF MANOR	PACE UNIV, PO BOX 3020, 235 ELM RD, BRIARCLIFF MANOR, NY 10510-8020	0001-4273			ACAD MANAGE J	Acad. Manage. J.		1968	11	4					415	426		10.2307/254890				12	Business; Management	Business & Economics	ZJ801	WOS:A1968ZJ80100006					2019-01-18	
J	MEINHART, WA; DELIONBACK, LM				MEINHART, WA; DELIONBACK, LM			PROJECT MANAGEMENT - INCENTIVE CONTRACTING DECISION MODEL	ACADEMY OF MANAGEMENT JOURNAL			English	Article									OKLAHOMA STATE UNIV,STILLWATER,OK							DANTZIG GB, 1963, LINEAR PROGRAMMING E, P277; *NAT AER, 1966, INC CONT SEM MAN; *NAT AER SPAC ADM, 1965, INC CONTR GUID; RAPAPORT A, 1966, 2 PERSON GAME THEORY, P18; SCHERER FM, 1964, WEAPONS ACQUISITION, P245; SCHLAIFER R, 1959, PROBABILITY STATISTI, P260	6	5	5	1	2	ACAD MANAGEMENT	BRIARCLIFF MANOR	PACE UNIV, PO BOX 3020, 235 ELM RD, BRIARCLIFF MANOR, NY 10510-8020	0001-4273			ACAD MANAGE J	Acad. Manage. J.		1968	11	4					427	434		10.2307/254891				8	Business; Management	Business & Economics	ZJ801	WOS:A1968ZJ80100007					2019-01-18	
J	LAUFER, AC				LAUFER, AC			TAXONOMY OF MANAGEMENT THEORY - PRELIMINARY FRAMEWORK	ACADEMY OF MANAGEMENT JOURNAL			English	Article									CALIF STATE COLL LONG BEACH,LONG BEACH,CA							ALLEN LA, 1963, COMMON VOCABULARY PR; BARNES RM, 1963, MOTION TIME STUDY; BEER S, 1959, CYBERNETICS MANAGEME, P205; BLOOM BS, 1956, TAXONOMY ED OBJECTIV, P11; BOULDING KE, 1956, MANAGE SCI, P197; GREGG JR, 1954, LANGUAGE TAXONOMY, P30; KOONTZ H, 1961, ACAD MANAGE J, V4, P174; Koontz H., 1968, PRINCIPLES MANAGEMEN; MILLER RB, ERGONOMICS, P173; SCOTT WG, 1961, ACAD MANAGE J    APR, P7; SIMPSON GG, 1961, PRINCIPLES ANIMAL TA, P3; SOKAL RR, 1963, PRINCIPLES NUMERICAL, P180; SUOJANEN WW, 1966, DYNAMICS MANAGEMENT; Taylor F. W., 1947, SCI MANAGEMENT; OXFORD DICTIONARY; 1963, APICS Q B	16	3	3	0	1	ACAD MANAGEMENT	BRIARCLIFF MANOR	PACE UNIV, PO BOX 3020, 235 ELM RD, BRIARCLIFF MANOR, NY 10510-8020	0001-4273			ACAD MANAGE J	Acad. Manage. J.		1968	11	4					435	442		10.2307/254892				8	Business; Management	Business & Economics	ZJ801	WOS:A1968ZJ80100008					2019-01-18	
J	URWICK, LF				URWICK, LF			ORGANIZATION AND THEORIES ABOUT NATURE OF MAN	ACADEMY OF MANAGEMENT JOURNAL			English	Article																BARNARD CI, 1938, FUNCTIONS EXECUTIVE, P89; DRUCKER P, 1954, PRACTICE MANAGEMENT, P147; GIBSON JL, 1966, ACAD MANAGE J, V9, P233, DOI 10.2307/255121; KOONTZ HF, 1964, UNIFIED THEORY MANAG, P80; MARSH JG, 1958, ORGANIZATIONS, P6; MAYO E, 1945, SOCIAL PROBLEMS IND, P20; MAYO E, 1945, SOCIAL PROBLEMS IND, P23; ROETHLISBERGER FJ, 1942, MANAGEMENT MORALE, P138; SMITH A, 1776, WEALTH NATIONS, V1, P5; TAYLOR FW, 1903, SCI MANAGEMENT, P142; URWICK L, 1928, ORG SALES OFFICE, P162; Veblen Thorstein, 1914, INSTINCT WORKMANSHIP; WARNER WL, 1949, SOCIAL CLASS AM EVAL, P3; WHITEHEAD TN, 1936, LEADERSHIP FREE SOCI, P79	14	0	0	0	1	ACAD MANAGEMENT	BRIARCLIFF MANOR	PACE UNIV, PO BOX 3020, 235 ELM RD, BRIARCLIFF MANOR, NY 10510-8020	0001-4273			ACAD MANAGE J	Acad. Manage. J.		1967	10	1					9	15		10.2307/255240				7	Business; Management	Business & Economics	ZJ794	WOS:A1967ZJ79400001					2019-01-18	
J	WEINSTOCK, I; THOMPSON, AA				WEINSTOCK, I; THOMPSON, AA			ADMINISTRATIVE SENSITIVITY TO ECONOMIC NEEDS OF EMPLOYEES - SOME DISTORTING MECHANISMS	ACADEMY OF MANAGEMENT JOURNAL			English	Article									VIRGINIA POLYTECH INST,BLACKSBURG,VA							GUILFORD JP, 1954, PSYCHOMETRIC METHODS, P237; KATZ D, 1966, SOCIAL PSYCHOLOGY OR, P287; March J. G., 1958, ORGANIZATIONS, P84; Maslow A. H., 1954, MOTIVATION PERSONALI; THOMPSON AA, 1965, THESIS U TENNESSEE	5	1	1	0	2	ACAD MANAGEMENT	BRIARCLIFF MANOR	PACE UNIV, PO BOX 3020, 235 ELM RD, BRIARCLIFF MANOR, NY 10510-8020	0001-4273			ACAD MANAGE J	Acad. Manage. J.		1967	10	1					17	25		10.2307/255241				9	Business; Management	Business & Economics	ZJ794	WOS:A1967ZJ79400002					2019-01-18	
J	VANCE, SC; GRAY, CF				VANCE, SC; GRAY, CF			USE OF A PERFORMANCE EVALUATION MODEL FOR RESEARCH IN BUSINESS GAMING	ACADEMY OF MANAGEMENT JOURNAL			English	Article									UNIV OREGON,DEPT PERSONNEL & IND MANAGEMENT,PORTLAND,OR; OREGON STATE UNIV,CORNVALLIS,OR							BABB EM, 1966, J BUS, V39, P465, DOI 10.1086/294887; Baumol William, 1959, BUSINESS BEHAV VALUE, P45; CANGELOSE VE, 1965, ADM SCI Q, V10, P186; CANGELOSI VE, 1965, ADMIN SCI QUART, V10, P175, DOI 10.2307/2391412; CUMMINGS LL, 1965, 8TH P ANN MIDW MAN C, P55; CYERT RM, 1963, BEHAVIORAL THEORY FI, P85; DILL WR, 1961, BUSINESS HORIZONS, V4, P64; EFROYMSON MA, 1960, MATH METHODS DIGITAL, P191; GHISELLI EE, 1959, PERS PSYCHOL, V12, P535, DOI 10.1111/j.1744-6570.1959.tb01341.x; KLASSON CR, 1964, ACADEMY MANAGEME SEP, P175; RYCHLAK JF, 1963, PSYCHOL REP, V12, P43, DOI 10.2466/pr0.1963.12.1.43; TEISCH HP, 1964, THESIS U OREGON; Vance S. C., 1960, MANAGEMENT DECISION; WEINGARTEN J, 1966, DUNS REV MODERN  SEP, P41	14	28	28	0	4	ACAD MANAGEMENT	BRIARCLIFF MANOR	PACE UNIV, PO BOX 3020, 235 ELM RD, BRIARCLIFF MANOR, NY 10510-8020	0001-4273			ACAD MANAGE J	Acad. Manage. J.		1967	10	1					27	37		10.2307/255242				11	Business; Management	Business & Economics	ZJ794	WOS:A1967ZJ79400003					2019-01-18	
J	MELCHER, AJ; BELLER, R				MELCHER, AJ; BELLER, R			TOWARD A THEORY OF ORGANIZATION COMMUNICATION - CONSIDERATION IN CHANNEL SELECTION	ACADEMY OF MANAGEMENT JOURNAL			English	Article									KENT STATE UNIV,COLL BUSINESS ADM,KENT,OH; UNIV FLORIDA,BUR ECONOM & BUSINESS RES,GAINESVILLE,FL							ALBERS H, 1961, ORGANIZED EXECUTIVE, P339; BARNARD C, 1938, FUNCTIONS EXECUTIVE, P122; BECKER J, 1963, INFORMATION STORAGE; BLAU PM, 1962, FORMAL ORGANIZATIONS, P87; CHAMBERLAIN NW, 1951, COLLECTIVE BARGAININ, P96; DALTON, 1959, MEN WHO MANAGE, P241; Dalton M., 1959, MEN WHO MANAGE; DAVIS K, 1961, SUPERVISORY MANA JUL, P2; DAVIS K, 1962, HUMAN RELATIONS WORK, P235; DEUTSCH KW, 1952, PUBLIC OPINION Q, V16, P360; DIMOCK ME, 1961, PUBLIC ADM, P132; GIBB J, 1961, J COMMUNICATION, V15, P141; GREGORY RH, 1963, BUSINESS DATA PROCES; GROUSSET R, 1964, RISE SPLENDOR CHINES, P72; JONES JH, 1958, BUSINESS COMMUNICATI; Kuhn JW, 1961, BARGAINING GRIEVANCE; LITTERER JA, 1961, ORG STRUCTURE BEHAVI, P138; LOOMIS CP, 1960, SOCIAL SYSTEMS, P57; MCKERSIE RB, 1962, J BUS, V35, P135, DOI 10.1086/294485; MCNERNEY JP, INSTALLING USING AUT; MERRIHUE WV, 1960, MANAGING COMMUNICATI, P174; MERTON RK, 1940, SOC FORCES, V17, P560; MILLER DC, 1951, IND SOC, P272; MORTING E, 1963, EFFECTIVE COMMUNICAT; RANDLE W, 1951, COLLECTIVE BARGAININ, P466; REDFIELD CE, 1958, COMMUNICATION MANAGE; SAYLES LR, 1964, MANAGERIAL BEHAVIOR; SEIMER SJ, 1959, SUGGESTION PLANS AM; Seinwerth Herman W., 1948, GETTING RESULTS SUGG; SEINWERTH HW, 1936, SUGGESTIONS EMPLOYEE; TARNOPOL L, 1959, PERS J, V37, P325; THAYER L, 1961, ADM COMMUNICATION, P70; Thompson J. D., 1959, COMP STUDIES ADM, P195; URWICK L, 1952, ADV MANAGEMENT, V17, P13; URWICK LF, 1956, HARVARD BUS REV, V34, P39; 1954, 4 BASIC ORG CONCEPTS, P4	36	11	11	0	6	ACAD MANAGEMENT	BRIARCLIFF MANOR	PACE UNIV, PO BOX 3020, 235 ELM RD, BRIARCLIFF MANOR, NY 10510-8020	0001-4273			ACAD MANAGE J	Acad. Manage. J.		1967	10	1					39	52		10.2307/255243				14	Business; Management	Business & Economics	ZJ794	WOS:A1967ZJ79400004					2019-01-18	
J	ENGLAND, GW				ENGLAND, GW			PERSONAL VALUE SYSTEMS OF AMERICAN MANAGERS	ACADEMY OF MANAGEMENT JOURNAL			English	Article									UNIV MINNESOTA,CTR IND RELAT,MINNEAPOLIS,MN							ALLPORT GW, 1966, AM PSYCHOL, V21, P1, DOI 10.1037/h0023295; BERNTHAL WF, 1962, MANAGEMENT J, V5, P190; ENGLAND GW, ADM SCI Q; GUTH W, 1965, HARVARD BUSINESS SEP, P123; LEARNED EP, 1959, HARVARD BUSINESS MAR, P11; MCMURRY RN, 1963, HARVARD BUSINESS MAY, P130; MILES R, 1964, IND RELATIONS    OCT, P77; Osgood E, 1957, MEASUREMENT MEANING; POSTMAN L, 1948, J ABNORM SOC PSYCH, V43, P142, DOI 10.1037/h0059765; SIMON HA, 1964, ADMIN SCI QUART, V9, P1, DOI 10.2307/2391519; TAGIURI R, 1965, ADM SCI Q        JUN, P39	11	207	207	0	15	ACAD MANAGEMENT	BRIARCLIFF MANOR	PACE UNIV, PO BOX 3020, 235 ELM RD, BRIARCLIFF MANOR, NY 10510-8020	0001-4273			ACAD MANAGE J	Acad. Manage. J.		1967	10	1					53	68		10.2307/255244				16	Business; Management	Business & Economics	ZJ794	WOS:A1967ZJ79400005					2019-01-18	
J	WREN, DA				WREN, DA			INTERFACE AND INTERORGANIZATIONAL COORDINATION	ACADEMY OF MANAGEMENT JOURNAL			English	Article									FLORIDA STATE UNIV,TALLAHASEE,FL							ASTLEY WC, 1954, ELECTRIC SYSTEM OPER, P42; BAKKE E, 1954, ORGANIZATIONAL STRUC, P4; BARY CW, 1963, OPERATIONAL EC ELECT, P143; BEER S, 1959, CYBERNETICS MANAGEME; DILL WR, 1958, ADMIN SCI QUART, V2, P409, DOI 10.2307/2390794; Evan W., 1966, APPROACHES ORG DESIG, P175; *FED POW COMM, 1965, NE POW FAIL, P16; HUGHES WR, 1962, Q J EC, V76, P599; Johnson R. A., 1963, THEORY MANAGEMENT SY; LITWAK E, 1962, ADMIN SCI QUART, V6, P395, DOI 10.2307/2390723; March James G., 1958, ORGANIZATIONS, P139; MARCH JG, 1959, ORGANIZATIONS; SCOTT WG, 1961, ACAD MANAGE J    APR, P7; Selznick P., 1949, TVA GRASS ROOTS STUD; SHIPMAN WD, 1962, INQUIRY HIGH COST EL, pCH8; 1964, US NEWS WORLD REPORT, V57, P64; 1963, BUSINESS WEEK   0831, P30; 1962, NEW REPUBLIC, V146, P2; 1950, NEW COLLEGE STANDARD, P620; 1964, NEWSWEEK, V64, P57	20	36	36	0	5	ACAD MANAGEMENT	BRIARCLIFF MANOR	PACE UNIV, PO BOX 3020, 235 ELM RD, BRIARCLIFF MANOR, NY 10510-8020	0001-4273			ACAD MANAGE J	Acad. Manage. J.		1967	10	1					69	81		10.2307/255245				13	Business; Management	Business & Economics	ZJ794	WOS:A1967ZJ79400006					2019-01-18	
J	ENGLAND, GW				ENGLAND, GW			ORGANIZATIONAL GOALS AND EXPECTED BEHAVIOR OF AMERICAN MANAGERS	ACADEMY OF MANAGEMENT JOURNAL			English	Article									UNIV MINNESOTA,CTR IND RELAT,MINNEAPOLIS,MN							CYERT RM, 1963, BEHAVIORAL THEORY FI, pCH1; DENT JK, 1959, PERSONNEL PSYCHOL, V7, P365; ENGLAND GW, 1967, ACAD MANAGE J, V10, P53, DOI 10.2307/255244; Hoppock R, 1935, JOB SATISFACTION; MAHONEY TA, 1966, PRELIMINARY REPO APR; SIMON HA, 1964, ADMIN SCI QUART, V9, P1, DOI 10.2307/2391519	6	45	47	1	5	ACAD MANAGEMENT	BRIARCLIFF MANOR	PACE UNIV, PO BOX 3020, 235 ELM RD, BRIARCLIFF MANOR, NY 10510-8020	0001-4273			ACAD MANAGE J	Acad. Manage. J.		1967	10	2					107	117		10.2307/254630				11	Business; Management	Business & Economics	ZJ795	WOS:A1967ZJ79500002					2019-01-18	
J	KOLDE, EJ; HILL, RE				KOLDE, EJ; HILL, RE			CONCEPTUAL AND NORMATIVE ASPECTS OF INTERNATIONAL MANAGEMENT	ACADEMY OF MANAGEMENT JOURNAL			English	Article									UNIV WASHINGTON,SEATTLE,WA; SACRAMENTO STATE COLL,SACRAMENTO,CA							Barnard C., 1954, FUNCTIONS EXECUTIVE; HAIRE M, 1963, IND RELATIONS    FEB; HALL ET, 1960, HUMAN ORG, V19; Herzberg F, 1959, MOTIVATION WORK; MCCLEARY EA, 1964, FORTUNE          DEC	5	6	6	0	4	ACAD MANAGEMENT	BRIARCLIFF MANOR	PACE UNIV, PO BOX 3020, 235 ELM RD, BRIARCLIFF MANOR, NY 10510-8020	0001-4273			ACAD MANAGE J	Acad. Manage. J.		1967	10	2					119	128		10.2307/254631				10	Business; Management	Business & Economics	ZJ795	WOS:A1967ZJ79500003					2019-01-18	
J	SIMONE, AJ				SIMONE, AJ			DYNAMIC PROGRAMMING APPROACH TO MAXIMIZATION OF OUTPUT FROM PRODUCTION PROCESSES OF VARYING EFFICIENCIES	ACADEMY OF MANAGEMENT JOURNAL			English	Article									BOSTON COLL,BOSTON,MA							Bellman R, 1957, DYNAMIC PROGRAMMING; CARR CR, 1964, QUANTITATIVE DECISIO, pCH7; FABRYCKY WJ, 1966, OPERATIONS EC IND AP, pCH16; HADLEY G, 1964, NONLINEAR DYNAMIC PR, pCH10; Howard R. A., 1966, MANAGE SCI, V12, P317; Nemhauser G. L., 1966, DYNAMIC PROGRAMMING; SASIENI M, 1959, OPERATIONS RES, pCH10	7	0	0	0	1	ACAD MANAGEMENT	BRIARCLIFF MANOR	PACE UNIV, PO BOX 3020, 235 ELM RD, BRIARCLIFF MANOR, NY 10510-8020	0001-4273			ACAD MANAGE J	Acad. Manage. J.		1967	10	2					129	143		10.2307/254632				15	Business; Management	Business & Economics	ZJ795	WOS:A1967ZJ79500004					2019-01-18	
J	CUMMINGS, LL				CUMMINGS, LL			MANAGERIAL EFFECTIVENESS .2. PERFORMANCE AT GRADUATE STUDENT LEVEL	ACADEMY OF MANAGEMENT JOURNAL			English	Article									INDIANA UNIV,GRAD SCH BUSINESS,BLOOMINGTON,IN							CUMMINGS LL, 1965, ACADEMY MANAGEMENT J; HARMON HH, 1960, MODERN FACTOR ANAL; KAISER HF, 1958, PSYCHOMETRIKA, V23, P187, DOI 10.1007/BF02289233	3	0	0	0	1	ACAD MANAGEMENT	BRIARCLIFF MANOR	PACE UNIV, PO BOX 3020, 235 ELM RD, BRIARCLIFF MANOR, NY 10510-8020	0001-4273			ACAD MANAGE J	Acad. Manage. J.		1967	10	2					145	160		10.2307/254633				16	Business; Management	Business & Economics	ZJ795	WOS:A1967ZJ79500005					2019-01-18	
J	TOSI, H; PATT, H				TOSI, H; PATT, H			ADMINISTRATIVE RATIOS AND ORGANIZATIONAL SIZE	ACADEMY OF MANAGEMENT JOURNAL			English	Article									UNIV MARYLAND,BALTIMORE,MD; US BUR CENSUS,WASHINGTON,DC							ANDERSON TR, 1963, ORG STRUCTURE BEHAVI, P317; CAPLOW T, 1957, ADM SCI Q, V1, P502; HAAS E, 1963, SOC FORCES, V42, P9, DOI 10.2307/2574940; INDIK BP, 1964, ADMIN SCI QUART, V9, P301, DOI 10.2307/2391443; Melman S, 1951, OXFORD ECON PAP, V3, P62, DOI 10.1093/oxfordjournals.oep.a041824; PARKINSON CN, 1957, ADMINISTRATION; Starbuck W. H., 1965, HDB ORG; TERRIEN FW, 1955, AM SOC REV, V20, P13; WORTHY JC, 1963, ORG STRUCTURE BEHAVI, P264	9	16	16	0	1	ACAD MANAGEMENT	BRIARCLIFF MANOR	PACE UNIV, PO BOX 3020, 235 ELM RD, BRIARCLIFF MANOR, NY 10510-8020	0001-4273			ACAD MANAGE J	Acad. Manage. J.		1967	10	2					161	168		10.2307/254634				8	Business; Management	Business & Economics	ZJ795	WOS:A1967ZJ79500006					2019-01-18	
J	BROWN, WB				BROWN, WB			MODEL-BUILDING AND ORGANIZATIONS	ACADEMY OF MANAGEMENT JOURNAL			English	Article									INDIANA UNIV,GRAD SCH BUSINESS,BLOOMINGTON,IN							BEER S, 1959, CYBERNETICS MANAGEME; COLEMAN J, 1964, INTRO MATH SOC, P526; COLEMAN JS, 1961, SOCIOMETRY, V24, P36, DOI 10.2307/2785927; Feigenbaum E. A., 1963, COMPUTERS THOUGHT; GUETZKOW H, 1962, SIMULATION SOCIAL SC, pCH7; GULLAHORN JT, 1963, BEHAVIORAL SCI, V8; HABERSTROH CJ, 1960, MANAGEMENT SCI, V6; Helmer Olaf, 1959, MANAGEMENT SCI, V6, P5; Homans G. C., 1950, HUMAN GROUP; HOMANS GC, 1961, SOCIAL BEHAVIOR ITS; HORVATH WJ, 1966, MANAGEMENT SCI, V12; KOONTZ H, 1962, HARVARD BUSINESS JUL; PHILLIPS BS, 1966, SOCIAL RES, pCH3; SHUBIK M, 1964, GAME THEORY RELATED, pCH1; SIMON HA, 1959, ADM BEHAVIOR, pCH2; SIMON HA, 1952, AM SOCIOL REV, P202; SIMON HA, 1956, STATE SOCIAL SCI, P67; Zetterberg H. L., 1963, THEORY VERIFICATION; 1961, ACADEMY MANAGEME DEC	19	3	3	0	4	ACAD MANAGEMENT	BRIARCLIFF MANOR	PACE UNIV, PO BOX 3020, 235 ELM RD, BRIARCLIFF MANOR, NY 10510-8020	0001-4273			ACAD MANAGE J	Acad. Manage. J.		1967	10	2					169	178		10.2307/254635				10	Business; Management	Business & Economics	ZJ795	WOS:A1967ZJ79500007					2019-01-18	
J	MUSE, WV				MUSE, WV			UNIVERSALITY OF MANAGEMENT	ACADEMY OF MANAGEMENT JOURNAL			English	Article									OHIO UNIV,COLL BUSINESS ADM,DEPT MARKETING,COLUMBIA,OH							MCFARLAND DE, 1958, MANAGEMENT PRINCIPLE, P3; MUSE WV, 1966, THESIS U ARKANSAS; TERRY GR, 1960, PRINCIPLES MANAGEMEN, P33	3	2	2	0	5	ACAD MANAGEMENT	BRIARCLIFF MANOR	PACE UNIV, PO BOX 3020, 235 ELM RD, BRIARCLIFF MANOR, NY 10510-8020	0001-4273			ACAD MANAGE J	Acad. Manage. J.		1967	10	2					179	184		10.2307/254636				6	Business; Management	Business & Economics	ZJ795	WOS:A1967ZJ79500008					2019-01-18	
J	DILLMAN, EG				DILLMAN, EG			BEHAVIORAL SCIENCE APPROACH TO PERSONNEL SELECTION	ACADEMY OF MANAGEMENT JOURNAL			English	Article									UNIV NEW MEXICO,ALBUQUERQUE,NM							Argyris C., 1957, PERSONALITY ORG; BURCHARD WW, 1960, SOC SOCIAL RES, V44, P420; CALHOON RP, 1963, MANAGING PERSONNEL; CANNING RR, 1959, AM J SOC         MAY, P580; DEUTSCH M, 1959, HUM RELAT, V12, P81, DOI 10.1177/001872675901200107; DILLMAN EG, 1964, POLICE           MAY; FOA UG, 1957, PERS PSYCHOL, V10, P161, DOI 10.1111/j.1744-6570.1957.tb00774.x; GOLEMBIEWSKI RT, 1961, PERSONNEL, V38, P36; JUCIUS MJ, 1959, PERSONNEL MANAGEMENT, pCH6; KAHN R, 1961, CONFLICT MANAGEMENT, P21; KRECH D, 1962, INDIVIDUAL SOC TXB S, P17; KUHLAN RG, J APPLIED PSYCHOLOGY, V48, P56; MORRIS RT, 1959, AM SOC REV, V24, P233; PEABODY RL, 1962, ADM SCI Q        MAR, P465; REISS AJ, 1961, OCCUPATIONS SOCIAL S, P257; SIMON HA, 1958, ADM BEHAVIOR, pR30; STEINER ID, 1963, J ABNORM PSYCHOL, V67, P388, DOI 10.1037/h0048897; STONE CH, 1956, EFFECTIVE PERSONNEL; TANNENBAUM AS, 1962, ADMIN SCI QUART, V7, P236, DOI 10.2307/2390857; VROOM VH, 1962, PERS PSYCHOL, V15, P159, DOI 10.1111/j.1744-6570.1962.tb01858.x; VROOM VH, 1960, SOME PERSONALITY DET; ZANDER A, 1960, HUMAN RELATIONS, V13, P334	22	2	2	0	1	ACAD MANAGEMENT	BRIARCLIFF MANOR	PACE UNIV, PO BOX 3020, 235 ELM RD, BRIARCLIFF MANOR, NY 10510-8020	0001-4273			ACAD MANAGE J	Acad. Manage. J.		1967	10	2					185	198		10.2307/254637				14	Business; Management	Business & Economics	ZJ795	WOS:A1967ZJ79500009					2019-01-18	
J	GREENWOOD, WT				GREENWOOD, WT			FORUM - EXCHANGES ON CASES AND POLICY COURSES - REJOINDER	ACADEMY OF MANAGEMENT JOURNAL			English	Article									SO ILLINOIS UNIV,COLL BUSINESS ADM,CARBONDALE,IL								0	1	1	0	1	ACAD MANAGEMENT	BRIARCLIFF MANOR	PACE UNIV, PO BOX 3020, 235 ELM RD, BRIARCLIFF MANOR, NY 10510-8020	0001-4273			ACAD MANAGE J	Acad. Manage. J.		1967	10	2					199	204		10.2307/254638				6	Business; Management	Business & Economics	ZJ795	WOS:A1967ZJ79500010					2019-01-18	
J	GLUECK, WF				GLUECK, WF			APPLIED ORGANIZATION ANALYSIS	ACADEMY OF MANAGEMENT JOURNAL			English	Article									UNIV TEXAS,HOUSTON,TX							ALLEN L, 1954, ORG PLANNING MAN OCT, P1; BAILY J, 1962, ACADEMY MANAGEMENT J, V7; Chandler A. D., 1962, STRATEGY STRUCTURE; DALE E, 1952, PLANNING DEVELOPING, P297; DANIEL D, 1966, HARVARD BUSINESS NOV, P96; DATTA SK, 1966, PERSONNEL MANAGE MAR, P7; DUBIN R, 1961, MODERN ORG, P218; EFFERSON C, 1958, MANAGEMENT RECOR APR, P134; EFFERSON C, 1959, ACADEMY MANAGEMENT J, V2, P31; ESTES H, 1962, ORG THEORY IND PRACT, P13; GARDNER JW, 1965, HARPERS MAGAZINE OCT; GLUECK WF, 1966, THESIS MICHIGAN STAT; Holden P. E., 1941, TOP MANAGEMENT ORG C; HOOK C, 1951, ORG PLANNING ITS CHA, P17; JANGER AR, 1967, PERSONNEL ADM CHANGI, P21; LEAVITT H, 1965, MANAGERIAL PSYCHOLOG; Leavitt H. J., 1965, HDB ORG, P1144; MCFARLAND DE, 1967, AMA79 AM MAN ASS RES, P22; MERTON R, 1940, J SOCIAL FORCES  MAY, P97; *US BUR CENS, 1960 CENS POP    PC2; WARNER L, 1952, OCCUPATIONAL MOBILIT; MANAGEMENT PERSONNEL	22	0	0	0	1	ACAD MANAGEMENT	BRIARCLIFF MANOR	PACE UNIV, PO BOX 3020, 235 ELM RD, BRIARCLIFF MANOR, NY 10510-8020	0001-4273			ACAD MANAGE J	Acad. Manage. J.		1967	10	3					223	234		10.2307/255281				12	Business; Management	Business & Economics	ZJ796	WOS:A1967ZJ79600002					2019-01-18	
J	MCLENNAN, K				MCLENNAN, K			MANAGER AND HIS JOB SKILLS	ACADEMY OF MANAGEMENT JOURNAL			English	Article									TEMPLE UNIV,PHILADELPHIA,PA							DALE E, 1960, HARVARD BUSINESS MAR, P53; FLEISHMAN EA, 1963, PEOPLE PRODUCTIVITY, P410; HEMPHILL JK, 1960, 98 OH STAT U BUR BUS; Koontz H., 1964, PRINCIPLES MANAGEMEN, P45; Mahoney T., 1963, DEV MANAGERIAL PERFO; WALKER HM, 1953, STATISTICAL INFERENC, P278	6	5	5	0	2	ACAD MANAGEMENT	BRIARCLIFF MANOR	PACE UNIV, PO BOX 3020, 235 ELM RD, BRIARCLIFF MANOR, NY 10510-8020	0001-4273			ACAD MANAGE J	Acad. Manage. J.		1967	10	3					235	245		10.2307/255282				11	Business; Management	Business & Economics	ZJ796	WOS:A1967ZJ79600003					2019-01-18	
J	LITSCHERT, RJ				LITSCHERT, RJ			SOME CHARACTERISTICS OF ORGANIZATION FOR LONG-RANGE PLANNING	ACADEMY OF MANAGEMENT JOURNAL			English	Article									VIRGINIA POLYTECH INST,BLACKSBURG,VA							BRANCH MC, 1964, CALIFORNIA MANAGEMEN, V7; SCOTT BW, 1965, LONG RANGE PLANNING, P159; STEINER GA, 1963, MANAGERIAL LONG RANG, P20	3	2	2	0	2	ACAD MANAGEMENT	BRIARCLIFF MANOR	PACE UNIV, PO BOX 3020, 235 ELM RD, BRIARCLIFF MANOR, NY 10510-8020	0001-4273			ACAD MANAGE J	Acad. Manage. J.		1967	10	3					247	256		10.2307/255283				10	Business; Management	Business & Economics	ZJ796	WOS:A1967ZJ79600004					2019-01-18	
J	ROBIN, DP				ROBIN, DP			INPUT-OUTPUT MODEL OF EMPLOYEE BEHAVIOR	ACADEMY OF MANAGEMENT JOURNAL			English	Article									LOUISIANA STATE UNIV,BATON ROUGE,LA							BENTHAM J, 1825, RATIONAL REWARD, P19; BLAKE RR, 1964, HARVARD BUS REV, V42, P133; DAVIS K, 1967, HUMAN RELATIONS WORK, pCH1; HERZBERG F, 1959, MOTIVATION WORK, P79; KRECH D, 1959, INDIVIDUAL SOC, pCH7; LEFTWICH RH, 1966, PRICE SYSTEM RESOURC, pCH4; Levinson H., 1962, MEN MANAGEMENT MENTA, P21; Maslow A. H., 1954, MOTIVATION PERSONALI; SCHINDLER JA, LIVE 365 DAYS YEAR, P182; SCHLAIFER R, 1959, PROBABILITY STATISTI, pCH7; VROOM VH, 1964, WORK MOTIVATION, P204	11	2	2	0	4	ACAD MANAGEMENT	BRIARCLIFF MANOR	PACE UNIV, PO BOX 3020, 235 ELM RD, BRIARCLIFF MANOR, NY 10510-8020	0001-4273			ACAD MANAGE J	Acad. Manage. J.		1967	10	3					257	268		10.2307/255284				12	Business; Management	Business & Economics	ZJ796	WOS:A1967ZJ79600005					2019-01-18	
J	FRENCH, EB				FRENCH, EB			ORGANIZATION SCIENTIST - MYTH OR REALITY	ACADEMY OF MANAGEMENT JOURNAL			English	Article									ROOSEVELT UNIV,CHICAGO,IL							BRIGHT JR, 1963, BATTELLE TECHNIC JUL; DANIELSON LE, 1960, CHARACTERISTICS SCI; FRENCH EB, 1963, PERSONNEL PROBLEMS I; JOHNSON AL, 1954, FACTORS SELECTING EN, P21; KORNHAUSER W, 1962, SCI IND CONFLICT ACC; MANN GR, 1918, 11 CARN F ADV TEACH, P168; STRAUSS AL, 1962, PROFESSIONAL SCI STU; TAYLOR CW, 1961, 110 UT ENG EXP STAT; Whyte W. H., 1956, ORG MAN	9	1	1	0	1	ACAD MANAGEMENT	BRIARCLIFF MANOR	PACE UNIV, PO BOX 3020, 235 ELM RD, BRIARCLIFF MANOR, NY 10510-8020	0001-4273			ACAD MANAGE J	Acad. Manage. J.		1967	10	3					269	273		10.2307/255285				5	Business; Management	Business & Economics	ZJ796	WOS:A1967ZJ79600006					2019-01-18	
J	HUBER, GP				HUBER, GP			APPLICATION OF BEHAVIORAL SCIENCE THEORY TO PROFESSIONAL DEVELOPMENT	ACADEMY OF MANAGEMENT JOURNAL			English	Article									UNIV WISCONSIN,INST SOCIAL SYST RES,MADISON,WI; UNIV WISCONSIN,DEPT MECH ENGN,DIV IND ENGN,MADISON,WI							ABERCROMBIE ML, 1960, ANATOMY JUDGMENT; Argyris C., 1964, INTEGRATING INDIVIDU; ARGYRIS C, 1962, INTERPERSONAL COMPET; Argyris C., 1957, PERSONALITY ORG; ATKINSON JW, 1958, MOTIVES FANTASY ACTI; BAKKE EW, 1959, MODERN ORG THEORY; BENNETT WE, 1959, MANAGER SELECTION ED; BENNIS, 1958, HUMAN RELATIONS, P143; BERELSON B, 1964, HUMAN BEHAVIOR; BERKOWITZ, 1957, J ABNORMAL SOCIAL PS, V45, P350; Blau P. M, 1955, DYNAMICS BUREAUCRACY; CANTOR N, 1957, LEARNING PROCESS MAN; CHOWDRY K, 1960, SOME THEORIES ORG; CRAF JR, 1958, JUNIOR BOARDS EXECUT; Dalton M., 1959, MEN WHO MANAGE; DEUTSCH M, 1962, 1962 NEBR S MOT; FESTINGER L, 1961, SMALL GROUPS; Hare A. P., 1962, HDB SMALL GROUP RES; KAHN, 1964, ORG STRESS STUDIES R; LEAVITT HJ, 1958, MANAGERIAL PSYCHOLOG; Likert R., 1961, NEW PATTERNS MANAGEM; Maslow AH, 1943, PSYCHOL REV, V50, P370, DOI 10.1037/h0054346; RIDGWAY VF, 1960, SOME THEORIES ORG; Stedry A, 1960, BUDGET CONTROL COST; TANNENBAUM R, 1950, CANADIAN J EC POLITI; THOMAS EJ, 1962, GROUP DYNAMICS; UNDERWOOD BJ, 1964, SCI AM           MAR; ZALESNIK, 1958, MOTIVATION PRODUCTIV	28	1	1	0	1	ACAD MANAGEMENT	BRIARCLIFF MANOR	PACE UNIV, PO BOX 3020, 235 ELM RD, BRIARCLIFF MANOR, NY 10510-8020	0001-4273			ACAD MANAGE J	Acad. Manage. J.		1967	10	3					275	286		10.2307/255286				12	Business; Management	Business & Economics	ZJ796	WOS:A1967ZJ79600007					2019-01-18	
J	GOETZ, BE				GOETZ, BE			MATHEMATICS AS A LANGUAGE OR, CONVERSATION WITH A COMPUTOR	ACADEMY OF MANAGEMENT JOURNAL			English	Article									MIT,CAMBRIDGE,MA							SUTHERLAND IE, 1966, SCI AM           SEP	1	0	0	0	1	ACAD MANAGEMENT	BRIARCLIFF MANOR	PACE UNIV, PO BOX 3020, 235 ELM RD, BRIARCLIFF MANOR, NY 10510-8020	0001-4273			ACAD MANAGE J	Acad. Manage. J.		1967	10	3					287	291		10.2307/255287				5	Business; Management	Business & Economics	ZJ796	WOS:A1967ZJ79600008					2019-01-18	
J	BURACK, EH; CASSELL, FH				BURACK, EH; CASSELL, FH			TECHNOLOGICAL CHANGE AND MANPOWER DEVELOPMENTS IN ADVANCED PRODUCTION SYSTEMS	ACADEMY OF MANAGEMENT JOURNAL			English	Article									INLAND STEEL CO,E CHICAGO,IN; ILLINOIS INST TECHNOL,CHICAGO,IL							Bright J. R., 1958, AUTOMATION MANAGEMEN; BURACK EH, 1966, ACAD MANAGE J, V9, P43, DOI 10.2307/255299; BURACK EH, ADM SCI Q; BURACK EH, UNPUBLISHED; EMERY FE, 1962, HUM RELAT, V15, P17, DOI 10.1177/001872676201500102; FAUNCE W, 1958, AM SOC REV       AUG; Hill Samuel E., 1959, MANPOWER INNOVATION; LIPSTREU O, 1964, TRANSITION AUTOMATIO, P53; MANN F, 1960, AUTOMATION WORKER; WALKER C, 1957, AUTOMATIC FACTORY; Woodward Joan, 1958, MANAGEMENT TECHNOLOG; 1965, IND ORG THEORY PRACT	12	1	1	0	1	ACAD MANAGEMENT	BRIARCLIFF MANOR	PACE UNIV, PO BOX 3020, 235 ELM RD, BRIARCLIFF MANOR, NY 10510-8020	0001-4273			ACAD MANAGE J	Acad. Manage. J.		1967	10	3					293	308		10.2307/255288				16	Business; Management	Business & Economics	ZJ796	WOS:A1967ZJ79600009					2019-01-18	
J	DELBECQ, AL				DELBECQ, AL			MANAGEMENT OF DECISION-MAKING WITHIN FIRM - 3 STRATEGIES FOR 3 TYPES OF DECISION-MAKING	ACADEMY OF MANAGEMENT JOURNAL			English	Article									UNIV WISCONSIN,MADISON,WI							BENNIS W, 1965, TRANSACTIONS     SUM; BERKOWITZ L, 1953, J ABNORMAL SOCIAL PS, P231; BLAU PM, 1962, ORG COMP APPROACH; Carzo Jr R, 1963, ADMIN SCI QUART, P393, DOI 10.2307/2390959; DELBECQ AL, 1964, ACAD MANAGE J, V7, P255, DOI 10.2307/254936; DELBECQ AL, 1965, ACAD MANAGE J, V8, P32, DOI 10.2307/255130; DELBECQ AL, 1964, MAKING DECISIONS, P213; GOLEMBIEWSKI RT, 1962, SMALL GROUP, P181; Guetzkow H, 1955, MANAGE SCI, V1, P233, DOI 10.1287/mnsc.1.3-4.233; LEADER AH, 1967, APR MIDW DIV ACAD MA; LEAVITT HJ, 1964, MANAGERIAL PSYCHOLOG, P8; Maier N. R. F., 1963, PROBLEM SOLVING DISC; MEE JF, 1964, BUS HORIZONS, P70; PRAKTISH CR, 1967, APR MIDW ACAD MAN; SCHUTZ WC, 1952, S TECHNIQUES MEASURE, P27; SCOTT WE, 1965, J ACADEMY MANAGE SEP; SHULL FA, DECISION MAKING ORG; SHULL FA, 1965, MATRIX STRUCTURE PRO; SIMON H, 1960, NEW SCI MANAGEMENT D, pCH2; SIMON HA, 1958, OPERATIONS RES J JAN; Steiner G. A., 1965, CREATIVE ORG; TAYLOR PW, 1958, ADM SCI Q, V3, P23; THOMPSON J, 1959, ADMINISTRATION, P198; THOMPSON VA, 1965, ADM SCI Q        JUN; WOLMAN B, 1953, AUG ANN M AM SOC ASS; ZALEZNIC A, 1965, HUMAN DILEMMAS LEADE	26	16	16	0	1	ACAD MANAGEMENT	BRIARCLIFF MANOR	PACE UNIV, PO BOX 3020, 235 ELM RD, BRIARCLIFF MANOR, NY 10510-8020	0001-4273			ACAD MANAGE J	Acad. Manage. J.		1967	10	4					329	339		10.2307/255266				11	Business; Management	Business & Economics	ZJ797	WOS:A1967ZJ79700002					2019-01-18	
J	PETIT, TA				PETIT, TA			BEHAVIORAL THEORY OF MANAGEMENT	ACADEMY OF MANAGEMENT JOURNAL			English	Article									UNIV ARIZONA,TEMPE,AZ							Alchian AA, 1950, J POLIT ECON, V58, P211, DOI 10.1086/256940; BOULDING KE, 1950, RECONSTRUCTION EC, pCH2; CHAMBERLAIN N, 1955, GENERAL THEORY EC PR; CYERT RM, 1963, BEHAVIORAL THEORY FI; GORDON PJ, 1963, J ACADEMY MANAGEMENT, V6, P290; Knauth O., 1956, BUSINESS PRACTICES T; KOONTZ H, 1961, J ACAD MANAGEMENT, V4, P174; Machlup Fritz, 1967, AM ECON REV, V57, P9; PARSONS T, 1960, STRUCTURE PROCESS MO, pCH1; PRESTHUS R, 1965, BEHAVIOURAL APPROACH, pCH1; SIMON HA, 1964, UNIFIED THEORY MANAG, P79; SIMON HA, 1957, MODELS MAN, P198; Thompson J D, 1967, ORGANIZATION ACTION, P10; URWICK LF, 1961, BEHAVIORAL SCI APPRO, P421; WHITEHEAD AN, 1962, WORLD BUSINESS, V4, P2045	15	3	3	0	1	ACAD MANAGEMENT	BRIARCLIFF MANOR	PACE UNIV, PO BOX 3020, 235 ELM RD, BRIARCLIFF MANOR, NY 10510-8020	0001-4273			ACAD MANAGE J	Acad. Manage. J.		1967	10	4					341	350		10.2307/255267				10	Business; Management	Business & Economics	ZJ797	WOS:A1967ZJ79700003					2019-01-18	
J	GORDON, PJ				GORDON, PJ			ADMINISTRATIVE STRATEGY FOR A GRADUATE SCHOOL OF ADMINISTRATION	ACADEMY OF MANAGEMENT JOURNAL			English	Article									INDIANA UNIV,BLOOMINGTON,IN							HINDERBAKER I, 1963, MAR SUM P WEST POL S; MOORE DG, 1960, NATIONS BUSINESS NOV; 1965, HOSPITAL ADM, V10, P23; 1962, NEW WORLD DICTIONARY	4	1	1	0	1	ACAD MANAGEMENT	BRIARCLIFF MANOR	PACE UNIV, PO BOX 3020, 235 ELM RD, BRIARCLIFF MANOR, NY 10510-8020	0001-4273			ACAD MANAGE J	Acad. Manage. J.		1967	10	4					351	364		10.2307/255268				14	Business; Management	Business & Economics	ZJ797	WOS:A1967ZJ79700004					2019-01-18	
J	SARACHEK, B				SARACHEK, B			COMMENT ON INTERDISCIPLINARY APPROACH TO ADMINISTRATIVE THOUGHT	ACADEMY OF MANAGEMENT JOURNAL			English	Article									UNIV MISSOURI,KANSAS CITY,MO							ARGYRIS C, 1962, INTERPERSONAL COMPET, P101; CYERT RM, 1963, BEHAVIORAL THEORY FI, P34; DICKSON WJ, 1966, COUNSELING ORG, P449; Herzberg F., 1966, WORK NATURE MAN, P71; LEWIN K, 1944, PERSONALITY BEHAV DI, P333; MACHLUP F, 1967, AM EC REV, V57, P26; MARCH JG, 1959, ORGANIZATIONS, P138; Maslow A. H., 1954, MOTIVATION PERSONALI; Mayo E., 1960, HUMAN PROBLEMS IND C; SIMON HA, 1959, AM ECON REV, V49, P253	10	3	4	0	1	ACAD MANAGEMENT	BRIARCLIFF MANOR	PACE UNIV, PO BOX 3020, 235 ELM RD, BRIARCLIFF MANOR, NY 10510-8020	0001-4273			ACAD MANAGE J	Acad. Manage. J.		1967	10	4					365	370		10.2307/255269				6	Business; Management	Business & Economics	ZJ797	WOS:A1967ZJ79700005					2019-01-18	
J	HICKS, HG; GORONZY, F				HICKS, HG; GORONZY, F			METHODOLOGY IN STUDY OF MANAGEMENT AND ORGANIZATION	ACADEMY OF MANAGEMENT JOURNAL			English	Article									LOUISIANA STATE UNIV,PROGRAM MBA,BATON ROUGE,LA							BLAU PM, 1962, FORMAL ORG, P32; BROMBERGER S, 1963, PHILOSOPHY SCI, V2, P82; Bronfenbrenner M., 1966, STRUCTURE EC SCI ESS, P5; BROWN W, 1962, HARVARD BUSINESS SEP, P127; BRYAND EC, 1960, STATISTICAL ANAL, P29; Chandler A. D., 1962, STRATEGY STRUCTURE; CHAPPLE E, 1961, MEASURE MANAGEMENT, P18; CYERT RM, 1963, BEHAVIORAL THEORY FI; DALE E, 1952, PLANNING DEVELOPING; DALE E, 1960, GREAT ORG, P11; DRUCKER PF, 1954, PRACTICE MANAGEMENT, P193; Friedman Milton, 1953, ESSAYS POSITIVE EC; Golembiewski Robert T., 1965, MEN MANAGEMENT MORAL; GOLEMBIEWSKI RT, 1962, BEHAVIOR ORG, P51; HERZBERG F, 1964, HARVARD BUSINESS JAN; JAQUES E, 1964, SCI BUSINESS     AUG, P201; JAQUES E, 1961, EQUITABLE PAYMENT, P181; JAQUES E, 1956, MEASUREMENT RESPONSI, P104; KEMENY JG, 1960, J CONFLICT RESOL SEP, P292; KOONTZ H, 1964, PRINCIPLES MANAGEMEN, P200; LAWRENCE PR, 1965, ORG BEHAVIOR ADM, P158; LIKERT R, 1961, NEW PATTERNS MANAGEM, pR7; MACHLUP F, 1964, AM ECON REV, P733; MAJUMDAR T, 1958, MEASUREMENT UTILITY, P78; MASSEY GG, 1965, AM EC REV        DEC, P1160; McClelland D. C., 1953, ACHIEVEMENT MOTIVE; NAGEL E, 1964, ECONOMIC THEORY, P211; NORTHROP FSC, 1963, PHILOSOPHY SCI, V1, P4; SAMUELSON PA, 1964, AM ECONOMIC REV  SEP, P736; SIMON HA, 1958, ADM BEHAVIOR, pCH1; URWICK L, 1952, NOTES THEORY ORG, P7; URWICK L, 1943, ELEMENTS ADM, P34; WORTHY JC, 1950, AM SOC REV, P169	33	4	4	0	2	ACAD MANAGEMENT	BRIARCLIFF MANOR	PACE UNIV, PO BOX 3020, 235 ELM RD, BRIARCLIFF MANOR, NY 10510-8020	0001-4273			ACAD MANAGE J	Acad. Manage. J.		1967	10	4					371	384		10.2307/255270				14	Business; Management	Business & Economics	ZJ797	WOS:A1967ZJ79700006					2019-01-18	
J	LUTHANS, F				LUTHANS, F			FACULTY PROMOTIONS - ANALYSIS OF CENTRAL ADMINISTRATIVE CONTROL	ACADEMY OF MANAGEMENT JOURNAL			English	Article									UNIV NEBRASKA,LINCOLN,NE							DALE E, 1956, ADM SCI Q, V1, P42; DODDS HW, 1960, PUBLIC ADM REV, V20, P13; DRUCKER P, 1964, MANAGEMENT CONTROLS, P295; MCCONNELL TR, 1963, STUDY ACADEMIC ADM, P115; VANCE S, 1967, ACAD MANAGE J, V10, P218, DOI 10.5465/AMJ.1967.19235572; YODER D, 1962, ACADEMY MANAGEMENT J, V5, P225	6	3	3	0	2	ACAD MANAGEMENT	BRIARCLIFF MANOR	PACE UNIV, PO BOX 3020, 235 ELM RD, BRIARCLIFF MANOR, NY 10510-8020	0001-4273			ACAD MANAGE J	Acad. Manage. J.		1967	10	4					385	394		10.2307/255271				10	Business; Management	Business & Economics	ZJ797	WOS:A1967ZJ79700007					2019-01-18	
J	GOODMAN, RA				GOODMAN, RA			AMBIGUOUS AUTHORITY DEFINITION IN PROJECT MANAGEMENT	ACADEMY OF MANAGEMENT JOURNAL			English	Article									UNIV CALIF LOS ANGELES,LOS ANGELES,CA							MARQUIS DG, 1965, 13365 MASS I TECHN A; STEINER GA, 1965, NASA1 U CAL RES PAP, P17; STEWART JM, 1965, BUSINESS HORIZONS, P54	3	13	13	0	1	ACAD MANAGEMENT	BRIARCLIFF MANOR	PACE UNIV, PO BOX 3020, 235 ELM RD, BRIARCLIFF MANOR, NY 10510-8020	0001-4273			ACAD MANAGE J	Acad. Manage. J.		1967	10	4					395	407		10.2307/255272				13	Business; Management	Business & Economics	ZJ797	WOS:A1967ZJ79700008					2019-01-18	
J	BLANCHARD, KH				BLANCHARD, KH			COLLEGE BOARDS OF TRUSTEES - NEED FOR DIRECTIVE LEADERSHIP	ACADEMY OF MANAGEMENT JOURNAL			English	Article									OHIO UNIV,COLUMBUS,OH							AKERS MP, 1964, NEWS LETT        MAY, P6; Fiedler F. E., 1964, ADV EXPT SOCIAL PSYC; FIEDLER FE, 1965, HARVARD BUSINESS SEP, P117; HALPIN AW, 1956, LEADERSHIP BEHAVIOR; HUNT JG, 1966, THESIS U ILLINOIS; SHAW ME, 1963, 1 U FLOR DEP PSYCH T; WICKE MF, 1960, TRUSTEE, V14; WRISTON HM, 1959, ACADEMIC PROCESS, P67; 1967, TIME            0623	9	3	3	0	4	ACAD MANAGEMENT	BRIARCLIFF MANOR	PACE UNIV, PO BOX 3020, 235 ELM RD, BRIARCLIFF MANOR, NY 10510-8020	0001-4273			ACAD MANAGE J	Acad. Manage. J.		1967	10	4					409	417		10.2307/255273				9	Business; Management	Business & Economics	ZJ797	WOS:A1967ZJ79700009					2019-01-18	
J	HILL, WA				HILL, WA			IMPACT OF EDP SYSTEMS ON OFFICE EMPLOYEES - SOME EMPIRICAL CONCLUSIONS	ACADEMY OF MANAGEMENT JOURNAL			English	Article									SYRACUSE UNIV,COLL BUSINESS ADM,SYRACUSE,NY							Bright J. R., 1958, AUTOMATION MANAGEMEN; BRIGHT JR, 1958, HARVARD BUS REV, V36, P85; BRIGHT JR, 1963, HARVARD BUS REV, V41, P76; Buckingham W., 1961, AUTOMATION ITS IMPAC; LEE HC, 1964, J ACADEMY MANAGEMENT, V7, P207; MEGGINSON LC, 1963, J ACADEMY MANAGEMENT, V6, P232; MILLER JJ, 1964, J ACADEMY MANAGEMENT, V7, P300; PAULING NG, 1964, J BUS, V37, P261, DOI 10.1086/294700; Shils Edward B., 1963, AUTOMATION IND RELAT; *US BUR LAB STAT, 1960, 1276 B; WALLIS WA, 1962, AUTOMATION TECHNOLOG; WEINER N, 1950, HUMAN USE HUMAN BEIN, P189	12	0	0	0	3	ACAD MANAGEMENT	BRIARCLIFF MANOR	PACE UNIV, PO BOX 3020, 235 ELM RD, BRIARCLIFF MANOR, NY 10510-8020	0001-4273			ACAD MANAGE J	Acad. Manage. J.		1966	9	1					9	19		10.2307/255296				11	Business; Management	Business & Economics	ZL328	WOS:A1966ZL32800001					2019-01-18	
J	BELL, GD				BELL, GD			PREDICTABILITY OF WORK DEMANDS AND PROFESSIONALIZATION AS DETERMINANTS OF WORKERS DISCRETION	ACADEMY OF MANAGEMENT JOURNAL			English	Article									UNIV N CAROLINA,DEPT SOCIOL,CHAPEL HILL,NC							BELL GD, INFLUENCES TECHNOLOG; BELL GD, DISCRETIONARY MODEL; BELL GD, 1964, THESIS YALE U; GOULDNER AW, 1954, PATTERNS IND BUREAUC, P109; JANOWITZ M, 1959, ADM SCI Q        MAR, P481; JAQUES E, 1956, MEASUREMENT RESPONSI, P34; MARCSON S, 1960, SCI AM IND, P44; STINCHCOMBE A, 1959, ADM SCI Q, V4, P180; THOMPSON JD, 1957, ADM SCI Q        DEC, P333; THOMPSON JD, 1959, COMP STUDIES ADM, P198	10	4	4	0	1	ACAD MANAGEMENT	BRIARCLIFF MANOR	PACE UNIV, PO BOX 3020, 235 ELM RD, BRIARCLIFF MANOR, NY 10510-8020	0001-4273			ACAD MANAGE J	Acad. Manage. J.		1966	9	1					20	28		10.2307/255297				9	Business; Management	Business & Economics	ZL328	WOS:A1966ZL32800002					2019-01-18	
J	CUMMINGS, LL				CUMMINGS, LL			MANAGERIAL EFFECTIVENESS - FORMULATING A RESEARCH STRATEGY	ACADEMY OF MANAGEMENT JOURNAL			English	Article									INDIANA UNIV,GRAD SCH BUSINESS,BLOOMINGTON,IN							BRAYBROOKE D, 1964, ADMIN SCI QUART, V8, P533, DOI 10.2307/2391431; DILL WR, 1962, NEW MANAGERS PATTERN; GIFFORD WS, 1928, HARPERS MAGAZINE, V156, P669; HARRELL TW, 1961, MANAGER PERFORMANCE; HAVEMANN, 1952, THEY WENT COLLEGE; HUSBAND RW, 1957, FORTUNE, V55, P157; KAPPEL FR, 1962, BELL TELEPHONE M SPR, P3; LAURENT H, 1962, MANAGEMENT RECORD, V14, P33; MAHONEY TA, 1960, PERS PSYCHOL, V13, P147; MAHONEY TA, 1961, RES APPROACH MANAGEM; MAHONEY TA, 1963, PERSONNEL ADM, V26, P12; WARD LC, UNPUBLISHED; WILLIAMS FJ, 1964, J APPL PSYCHOL, V48, P164, DOI 10.1037/h0041233; WILLIAMS FJ, 1959, THESIS STANFORD U; 1965, RES DEV MULTIPLE JUN; 1958, ASSESSING MANAGERIAL; 1961, SUMMARY EARLY ID AUG, P1	17	0	0	0	1	ACAD MANAGEMENT	BRIARCLIFF MANOR	PACE UNIV, PO BOX 3020, 235 ELM RD, BRIARCLIFF MANOR, NY 10510-8020	0001-4273			ACAD MANAGE J	Acad. Manage. J.		1966	9	1					29	42		10.2307/255298				14	Business; Management	Business & Economics	ZL328	WOS:A1966ZL32800003					2019-01-18	
J	BURACK, EH				BURACK, EH			TECHNOLOGY AND SOME ASPECTS OF INDUSTRIAL SUPERVISION - MODEL BUILDING APPROACH	ACADEMY OF MANAGEMENT JOURNAL			English	Article									ITT,DEPT BUSINESS & ECON,CHICAGO,IL							[Anonymous], 1961, WEBSTERS NEW INT DIC; ARGYL M, 1957, HUMAN RELATIONS, V10, P125; BALDWIN GB, 1959, 6TH P ANN M IND REL, P11; BRADY RA, 1961, ORG AUTOMATION SOC, P237; Bright J. R., 1958, AUTOMATION MANAGEMEN; BRIGHT JR, 1962, TECHNOLOGICAL PLANNI, P97; BUCKINGHAM W, 1961, AUTOMATION, P6; BURACK EH, UNPUBLISHED; DOWNS JF, 1959, HUMAN ORG, V17; DUBIN R, 1958, WORLD WORK, P179; DUBIN R, 1965, LEADERSHIP PRODUCTIV; DUBIN R, 1958, WORLD WORK, P347; DUBRIDGE LD, 1962, AUTOMATION TECHNOLOG, P30; FAUNCE WA, 1961, ORG AUTOMATION SOC, P44; FOOTE W, 1959, MODERN ORG THEORY, P159; FRIEDMANN G, 1955, IND SOC EMERGENCE HU, P200; GOULDNER AW, 1962, TECHNOLOGY MORAL ORD, P25; GUETZKOW H, 1960, GROUP DYNAMICS RESEA, P683; HUND JM, 1959, AUTOMATION SOC, P82; JACOBSON HB, 1959, AUTOMATION SOC, P466; JASINSKI FJ, 1959, HARVARD BUS REV, V37, P79; KAHN RL, 1960, GROUP DYNAMICS RES T, P559; Katz D., 1950, PRODUCTIVITY SUPERVI; KELLINGSWORTH CC, 1962, ANN AM ACADEMY P MAR, V340; LIPPET R, 1940, EXPT STUDY AUTHORITA; LOW WC, 1962, TECHNOLOGICAL PLANNI; MANN FC, 1962, AUTOMATION TECHNOLOG, P51; MANN FC, 1960, AUTOMATION WORKER, P7; MANN FC, 1956, J SOCIAL ISSUES, V7; MANN FC, 1963, UNDERSTANDING LEADER, P6; March J. G., 1958, ORGANIZATIONS; PARSONS T, 1953, WORKING PAPERS THEOR, P39; Rostow W. W., 1960, STAGES EC GROWTH NON, P4; SIMPSON RL, 1959, ADMIN SCI QUART, V4, P188, DOI 10.2307/2390677; STOGDILL RM, 1957, LEADERSHIP STRUCTURE, P129; STRAUSS G, 1960, PERSONNEL HUMAN PROB, P124; STRAUSS G, 1960, PERSONNEL HUMAN PROB, P184; THURLEY KE, 1963, SUPERVISOR HIS JOB; TOURAINE A, 1962, MODERN TECHNOLOGY CI; *US BUR LAB STAT, 1962, 1347 B, P45; Walker C., 1956, FOREMAN ASSEMBLY LIN; WALKER CR, 1957, AUTOMATIC FACTORY, P27; WALKER CR, 1950, IND CASE HISTORY CON; WALKER CR, 1952, MAN ASSEMBLY LINE, P9; Woodward Joan, 1958, MANAGEMENT TECHNOLOG; 1948, NEW CENTURY DICTIONA	46	3	3	0	1	ACAD MANAGEMENT	BRIARCLIFF MANOR	PACE UNIV, PO BOX 3020, 235 ELM RD, BRIARCLIFF MANOR, NY 10510-8020	0001-4273			ACAD MANAGE J	Acad. Manage. J.		1966	9	1					43	66		10.2307/255299				24	Business; Management	Business & Economics	ZL328	WOS:A1966ZL32800004					2019-01-18	
J	THOMPSON, HE				THOMPSON, HE			FORECASTING ERRORS, DIVERSIFICATION AND INVENTORY FLUCTUATIONS	ACADEMY OF MANAGEMENT JOURNAL			English	Article									UNIV WISCONSIN,MADISON,WI							ALLEN RGD, 1959, MATH EC, P120; Goldberg S., 1958, INTRO DIFFERENCE EQU; Goodwin Richard, 1948, INCOME EMPLOYMENT PU; HOLT CC, 1960, PLANNING PRODUCTION, P154; LOVELL M, 1961, ECONOMETRICA, V29, P293, DOI 10.2307/1909634; METZLER LA, 1941, REV ECON STAT, V3, P113; THOMPSON HE, 1966, MANAGE SCI, V12, P448; TUSTIN A, 1953, MECHANISM EC SYSTEMS	8	0	0	0	1	ACAD MANAGEMENT	BRIARCLIFF MANOR	PACE UNIV, PO BOX 3020, 235 ELM RD, BRIARCLIFF MANOR, NY 10510-8020	0001-4273			ACAD MANAGE J	Acad. Manage. J.		1966	9	1					67	77		10.2307/255300				11	Business; Management	Business & Economics	ZL328	WOS:A1966ZL32800005					2019-01-18	
J	ODIORNE, GS				ODIORNE, GS			MANAGEMENT THEORY JUNGLE AND EXISTENTIAL MANAGER	ACADEMY OF MANAGEMENT JOURNAL			English	Article									UNIV MICHIGAN,ANN ARBOR,MI							BELLOWS, 1962, EXECUTIVE SKILLS, P175; CAMUS A, 1959, MYTH SISYPHUS; FREDERICK WC, 1963, J ACADEMY MANAGE SEP; KOONTZ H, 1961, J ACADEMY MANAGE DEC; WATSON DS, 1963, PRICE THEORY ITS USE, P3	5	10	10	0	1	ACAD MANAGEMENT	BRIARCLIFF MANOR	PACE UNIV, PO BOX 3020, 235 ELM RD, BRIARCLIFF MANOR, NY 10510-8020	0001-4273			ACAD MANAGE J	Acad. Manage. J.		1966	9	2					109	116		10.2307/255028				8	Business; Management	Business & Economics	ZL329	WOS:A1966ZL32900001					2019-01-18	
J	BARTON, RF				BARTON, RF			REALITY AND BUSINESS POLICY DECISIONS	ACADEMY OF MANAGEMENT JOURNAL			English	Article									UNIV KANSAS,LAWRENCE,KS							Churchman C. W, 1961, PREDICTION OPTIMAL D; Fishburn P. S., 1964, DECISION VALUE THEOR	2	1	1	1	2	ACAD MANAGEMENT	BRIARCLIFF MANOR	PACE UNIV, PO BOX 3020, 235 ELM RD, BRIARCLIFF MANOR, NY 10510-8020	0001-4273			ACAD MANAGE J	Acad. Manage. J.		1966	9	2					117	122		10.2307/255029				6	Business; Management	Business & Economics	ZL329	WOS:A1966ZL32900002					2019-01-18	
J	STANLEY, JD				STANLEY, JD			FICTIONS - LEGAL AND ORGANIZATIONAL	ACADEMY OF MANAGEMENT JOURNAL			English	Article									UNIV TEXAS,ARLINGTON STATE COLL,ARLINGTON,TX							COHEN MR, 1931, ENCYCLOPEDIA SOCIAL, V3, P227; PITIRIM A, 1937, SOCIAL CULTURAL DYNA, V2, P326	2	0	0	0	1	ACAD MANAGEMENT	BRIARCLIFF MANOR	PACE UNIV, PO BOX 3020, 235 ELM RD, BRIARCLIFF MANOR, NY 10510-8020	0001-4273			ACAD MANAGE J	Acad. Manage. J.		1966	9	2					123	126		10.2307/255030				4	Business; Management	Business & Economics	ZL329	WOS:A1966ZL32900003					2019-01-18	
J	WORTMAN, MS				WORTMAN, MS			CORPORATE INDUSTRIAL RELATIONS RESEARCH - DREAM OR REALITY	ACADEMY OF MANAGEMENT JOURNAL			English	Article									UNIV IOWA,IOWA CITY,IA							ARONSON RL, 1961, ESSAYS IND RES, P19; DERBER M, 1964, IND LABOR RELAT REV, V17, P598, DOI 10.2307/2520618; DERBER M, 1963, 15TH P ANN M IND REL, P107; GOLD B, 1964, 23RD AC MAN P ANN M, P47; GOODE CE, 1958, PERSONNEL RES FRONTI, P94; RUSH CH, 1958, 10TH P ANN M IND REL, P64; SOMERS G, 1961, 26 U MICH REPR, P10; TRIPP LR, 1964, IND LABOR RELAT REV, V17, P612, DOI 10.2307/2520619; WHYTE WF, 1961, ESSAYS IND RELATIONS, P10; YODER D, 1962, PERSONNEL MANAGEMENT, P585; YODER D, 1959, 11TH P ANN M IND REL, P78; 1963, FORTUNE          JUL, V68, P178	12	0	0	0	1	ACAD MANAGEMENT	BRIARCLIFF MANOR	PACE UNIV, PO BOX 3020, 235 ELM RD, BRIARCLIFF MANOR, NY 10510-8020	0001-4273			ACAD MANAGE J	Acad. Manage. J.		1966	9	2					127	135		10.2307/255031				9	Business; Management	Business & Economics	ZL329	WOS:A1966ZL32900004					2019-01-18	
J	ALBANESE, R				ALBANESE, R			SUBSTITUTIONAL AND ESSENTIAL AUTHORITY	ACADEMY OF MANAGEMENT JOURNAL			English	Article									MIAMI UNIV,MIAMI,FL							KOONTZ H, 1964, PRINCIPLES MANAGEMEN, P50; SELEKMAN BM, 1959, MORAL PHILOSOPHY MAN, pR9; SIMON Y, 1948, NATURE FUNCTION AUTH; SIMON YR, 1951, PHILOSOPHY DEMOCRATI; TANNENBAUM R, 1963, READINGS MANAGEMENT, P708	5	0	0	0	1	ACAD MANAGEMENT	BRIARCLIFF MANOR	PACE UNIV, PO BOX 3020, 235 ELM RD, BRIARCLIFF MANOR, NY 10510-8020	0001-4273			ACAD MANAGE J	Acad. Manage. J.		1966	9	2					136	144		10.2307/255032				9	Business; Management	Business & Economics	ZL329	WOS:A1966ZL32900005					2019-01-18	
J	STEINMETZ, LL				STEINMETZ, LL			RESEARCH AND DEVELOPMENT MANAGERS DILEMMA - FACT OR FICTION	ACADEMY OF MANAGEMENT JOURNAL			English	Article									UNIV COLORADO,BOULDER,CO							DANIELSON LE, 1960, CHARACTERISTICS ENGI, P10; HERZBERG F, 1959, MOTIVATION WORK, P102; MYERS MS, 1964, HARVARD BUS REV, V42, P73; RAUDSEPP E, 1963, MANAGING CREATIVE SC, pR8; 1963, NON TECHNICAL ASPECT, P59	5	0	0	0	1	ACAD MANAGEMENT	BRIARCLIFF MANOR	PACE UNIV, PO BOX 3020, 235 ELM RD, BRIARCLIFF MANOR, NY 10510-8020	0001-4273			ACAD MANAGE J	Acad. Manage. J.		1966	9	2					145	151		10.2307/255033				7	Business; Management	Business & Economics	ZL329	WOS:A1966ZL32900006					2019-01-18	
J	FRENCH, EB				FRENCH, EB			PERSPECTIVE - MOTIVATION OF SCIENTISTS AND ENGINEERS	ACADEMY OF MANAGEMENT JOURNAL			English	Article									ROOSEVELT UNIV,CHICAGO,IL							ARENSBERG CM, 1957, IND RES MGT; BARNES LB, 1960, ORG SYSTEMS ENGINEER, P160; *DEUTSCH SHEA INC, 1961, IND REL NEWS, P1; Erikson E.H., 1959, IDENTITY LIFE CYCLE; HERZBERG, 1959, MOTIVATION WORK, P113; HOWER RM, 1963, MANAGERS SCIENTISTS; JENNINGS EE, 1965, MANAGEMENT PERSONNEL, V4; KORNHAUSER W, 1962, SCI IND CONFLICT ACC; KUBIE LS, 1954, AM SCI           JAN; KUBIE LS, 1953, AM SCI           OCT; MARCSON S, 1960, IRE TRANS ENG MANAGE, V7, P159, DOI 10.1109/IRET-EM.1960.5007565; MARCSON S, 1960, SCI AM IND ORG DETER; MYERS MS, 1964, HARVARD BUSINESS JAN; PELZ DC, 1956, ADMINISTRATIVE SCIEN, V1, P313; PETER HW, 1957, APPLICATIONS BEHAVIO, P137; RANDLE CW, 1959, HARVARD BUSINESS JAN; ROE A, 1952, SCI AM, V187, P2; SAUNDERS DR, 1955, 5512 ED TEST SERV RE; SHEPARD C, 1956, ADM SCI Q, V1, P352; SHEPARD HA, 1956, J BUS, V29, P261, DOI 10.1086/294121; Snow C. P., 1958, SEARCH; STEELE LW, 1957, HR IND RES MGT; STRAUSS AL, 1962, PROFESSIONAL SCI STU	23	1	1	0	4	ACAD MANAGEMENT	BRIARCLIFF MANOR	PACE UNIV, PO BOX 3020, 235 ELM RD, BRIARCLIFF MANOR, NY 10510-8020	0001-4273			ACAD MANAGE J	Acad. Manage. J.		1966	9	2					152	156		10.2307/255034				5	Business; Management	Business & Economics	ZL329	WOS:A1966ZL32900007					2019-01-18	
J	GREENBERG, DS				GREENBERG, DS			COMMENT - SWINGING WAYS TO SPEND A GRANT	ACADEMY OF MANAGEMENT JOURNAL			English	Article																	0	0	0	0	1	ACAD MANAGEMENT	BRIARCLIFF MANOR	PACE UNIV, PO BOX 3020, 235 ELM RD, BRIARCLIFF MANOR, NY 10510-8020	0001-4273			ACAD MANAGE J	Acad. Manage. J.		1966	9	2					157	159		10.2307/255035				3	Business; Management	Business & Economics	ZL329	WOS:A1966ZL32900008					2019-01-18	
J	LITTERER, JA				LITTERER, JA			CONFLICT IN ORGANIZATION - RE-EXAMINATION	ACADEMY OF MANAGEMENT JOURNAL			English	Article									UNIV ILLINOIS,EVANSTON,IL							ALLPORT GW, 1953, AM J ORTHOPSYCHIAT, V23, P107, DOI 10.1111/j.1939-0025.1953.tb00041.x; ARGYRIS C, 1964, INTEGRATING INDIVIDU, pCH1; Argyris C, 1952, IMPACT BUDGETS PEOPL; BASS BM, 1965, ORG PSYCHOLOGY, P336; Blau P., 1962, FORMAL ORG; Blau P. M, 1955, DYNAMICS BUREAUCRACY; BOULDING K, 1961, CONFLICT MANAGEMENT, P1; Dalton M., 1959, MEN WHO MANAGE; DEARBORN DC, 1958, SOCIOMETRY, V21, P140, DOI 10.2307/2785898; FRANKL VE, 1949, DEATH CAMP EXISTENTI; French JRP, 1941, J ABNORM SOC PSYCH, V36, P361, DOI 10.1037/h0057883; Gouldner A. W, 1954, PATTERNS IND BUREAUC; KATZ D, 1961, CONFLICT MANAGEMENT; MARCH JG, 1959, ORGANIZATIONS; MARTIN NH, 1956, J BUS, V29, P249, DOI 10.1086/294120; METCALF, 1941, DYNAMIC ADM; Mooney J. D., 1947, PRINCIPLES ORG; PORTER E, 1962, HARVARD BUSINESS REV; Taylor F. W., 1947, SCI MANAGEMENT; URWICK LF, 1943, ELEMENTS ADM; Whyte W. F., 1955, MONEY AND MOTIVATION; Whyte William F., 1948, HUMAN RELATIONS REST; WOLF W, 1963, AM J PSYCHOTHERAPY, V16, P124	23	30	30	1	8	ACAD MANAGEMENT	BRIARCLIFF MANOR	PACE UNIV, PO BOX 3020, 235 ELM RD, BRIARCLIFF MANOR, NY 10510-8020	0001-4273			ACAD MANAGE J	Acad. Manage. J.		1966	9	3					178	186		10.2307/255117				9	Business; Management	Business & Economics	ZL330	WOS:A1966ZL33000001					2019-01-18	
J	FRENCH, W; HENNING, D				FRENCH, W; HENNING, D			AUTHORITY-INFLUENCE ROLE OF FUNCTIONAL SPECIALIST IN MANAGEMENT	ACADEMY OF MANAGEMENT JOURNAL			English	Article									UNIV WASHINGTON,SEATTLE,WA							FRENCH W, 1963, ACADEMY MANAGEME MAR, P46; FRENCH W, 1964, PERSONNEL MANAGEMENT, P44; SAYLES L, 1964, MANAGERIAL BEHAVIOR, P256	3	3	3	2	3	ACAD MANAGEMENT	BRIARCLIFF MANOR	PACE UNIV, PO BOX 3020, 235 ELM RD, BRIARCLIFF MANOR, NY 10510-8020	0001-4273			ACAD MANAGE J	Acad. Manage. J.		1966	9	3					187	203		10.2307/255118				17	Business; Management	Business & Economics	ZL330	WOS:A1966ZL33000002					2019-01-18	
J	FARMER, RN				FARMER, RN			ORGANIZATIONAL TRANSFER AND CLASS STRUCTURE	ACADEMY OF MANAGEMENT JOURNAL			English	Article									INDIANA UNIV,INDIANAPOLIS,IN							ALPERT P, 1963, EC DEV, P87; BELASSA B, 1964, TRADE PROSPECTS DEVE; BLITZ RC, 1959, J POLIT ECON, V67, P560, DOI 10.1086/258243; DEWHURST JF, 1961, EUROPES NEEDS RESOUR, P61; FALTERMAYER EK, 1964, FORTUNE, V69, P118; FARMER RN, 1965, COMP MANAGEMENT EC P, P101; FRYER DW, 1965, WORLD EC DEV, P30; HARBISON F, 1964, ED MANPOWER EC GROWT, P73; HIGGINS B, 1959, ECONOMIC DEVELOPMENT, P353; ISSAWI C, 1962, EC MIDDLE EASTERN OI; KARANJIA RK, 1958, ARAB DAWN; KOONTZ H, 1964, PRINCIPLES MANAGEMEN, P205; LESTER RA, 1964, P S EMPLOYMENT, P28; MARTINDALE D, 1960, AM SOC, P334; NEWMAN WH, 1959, BUSINESS POLICIES MA, P462; POWELL RM, 1963, CALIF MANAGE REV, V6, P83, DOI 10.2307/41165580; REISSMAN L, 1959, CLASS AM LIFE, P35; ROSSI P, 1964, AM J SOC, V70, P286; SCHULTZ TW, 1961, AM ECON REV, V51, P1; SILBERMAN CE, 1965, FORTUNE, V71, P153; 1964, FOREIGN ASSISTANCE P, pR3; 1964, COLLEGE PLACEMENT AN; 1955, PROCESSES PROBLEMS I, P11	23	2	2	0	2	ACAD MANAGEMENT	BRIARCLIFF MANOR	PACE UNIV, PO BOX 3020, 235 ELM RD, BRIARCLIFF MANOR, NY 10510-8020	0001-4273			ACAD MANAGE J	Acad. Manage. J.		1966	9	3					204	216		10.2307/255119				13	Business; Management	Business & Economics	ZL330	WOS:A1966ZL33000003					2019-01-18	
J	GOLEMBIEWSKI, RT				GOLEMBIEWSKI, RT			PERSONALITY AND ORGANIZATION STRUCTURE - STAFF MODELS AND BEHAVIORAL PATTERNS	ACADEMY OF MANAGEMENT JOURNAL			English	Article									UNIV GEORGIA,ATHENS,GA							Adorno T. W., 1950, AUTHORITARIAN PERSON; ARGYRIS C, 1952, IMPACT BUDGETS PEOPL, P5; BROWN DS, 1963, PUBLIC ADMIN REV, V23, P67, DOI 10.2307/973166; DALTON M, 1959, MEN WHO MANAGE, P96; GOLEMBIEWSKI R, 1963, PERSONNEL ADM, V8, P15; GOLEMBIEWSKI RT, 1962, SMALL GROUP, P258; GOLEMBIEWSKI RT, 1961, MIDWEST J POLITICAL, V5, P239; GOLEMBIEWSKI RT, 1963, Q REV EC BUSINESS, V3, P29; GUBA EG, 1958, ADMIN SCI QUART, V3, P195, DOI 10.2307/2391017; KOONTZ H, 1959, PRINCIPLES MANAGEMEN, P135; LEPAWSKY A, 1949, ADMINISTRATION, P239; MCFARLAND DE, 1963, COOPERATION CONFLICT, P73; Rokeach M., 1960, OPEN CLOSED MIND; SAMPSON RC, 1955, STAFF ROLE MANAGEMEN, P176; Shils Edward, 1954, STUDIES SCOPE METHOD, P24; SOWERS EG, UNPUBLISHED; VROOM VH, 1960, SOME PERSONALITY DET; WHITE LD, 1955, INTRO STUDY PUBLIC A, P195; Whyte W. H., 1956, ORG MAN; ORG MEN POWER PATTER	20	1	1	0	3	ACAD MANAGEMENT	BRIARCLIFF MANOR	PACE UNIV, PO BOX 3020, 235 ELM RD, BRIARCLIFF MANOR, NY 10510-8020	0001-4273			ACAD MANAGE J	Acad. Manage. J.		1966	9	3					217	232		10.2307/255120				16	Business; Management	Business & Economics	ZL330	WOS:A1966ZL33000004					2019-01-18	
J	GIBSON, JL				GIBSON, JL			ORGANIZATION THEORY AND NATURE OF MAN	ACADEMY OF MANAGEMENT JOURNAL			English	Article									UNIV KENTUCKY,LOUISVILLE,KY							Argyris C., 1964, INTEGRATING INDIVIDU; Argyris C., 1957, PERSONALITY ORG; BLAU PM, 1956, BUREAUCRACY MODERN S, P27; Blauner Robert, 1964, ALIENATION FREEDOM F, P15; Caplow T., 1964, PRINCIPLES ORG; COOPER WW, 1964, NEW PERSPECTIVES ORG; Crozier Michel, 1964, BUREAUCRATIC PHENOME; Dalton M., 1959, MEN WHO MANAGE; DIMOCK M, 1959, ADM VITALITY; Downs Anthony, 1965, AM ECON REV, V55, P439; DRUCKER P, 1963, HUMAN ELEMENTS ADMIN, P364; FAYOL H, 1949, GENERAL IND MANAGEME; Gardner B., 1945, HUMAN RELATIONS IND; Gouldner A. W, 1954, PATTERNS IND BUREAUC; Gulick Luther Halsey, 1937, PAPERS SCI ADM; HAIRE M, 1962, ORG THEORY IND PRACT, P86; Haire M., 1959, MODERN ORG THEORY; HAYNES WW, 1961, MANAGEMENT, P39; KERR C, 1964, LABOR MANAGEMENT IND, P54; LIKERT R, 1953, MOTIVATION CORE MANA; LITTERER JA, 1965, ANALYSIS ORG; MARCH JG, 1958, ORGANIZATIONS, P29; Mayo E., 1933, HUMAN PROBLEMS IND C; MAYO E, 1947, SOCIAL PROBLEMS IND, P33; McNair Malcolm P., 1957, HARVARD BUSINESS MAR, P15; Merton RK, 1940, SOC FORCES, V18, P560, DOI 10.2307/2570634; Michels R., 1949, POLITICAL PARTIES; Mooney J. D., 1939, PRINCIPLES ORG; PFIFFNER JM, 1960, ADM ORG, P116; Presthus R., 1962, ORG SOC; Roethlisberger F. J, 1947, MANAGEMENT WORKER; Roethlisberger FJ, 1941, MANAGEMENT MORALE; RUBENSTEIN AH, 1960, SOME THEORIES ORG; SAINTSIMON HD, 1965, SOCIAL ORG SCI MAN O; SCOTT WG, 1961, ACAD MANAGE J    APR, P7; Selznick P., 1949, TVA GRASS ROOTS; SIMON HA, 1945, ADM BEHAVIOR, P20; STRAUSS G, 1963, SOCIAL SCI ORG, P46; STROTHER GB, 1962, SOCIAL SCI APPROACHE, P175; TAYLOR FW, 1911, SCI MANAGEMENT, P39; Thompson V., 1961, MODERN ORG; URWICK LF, 1943, ELEMENTS ADM; WEBER M, 1946, M WEBER, P214; Weber Maximilian Carl, 1947, THEORY SOCIAL EC ORG; WHITEHEAD TN, 1938, IND WORKER; WHYTE WF, 1951, PATTERN IND PEACE; Whyte William F., 1955, MONEY MOTIVATION, P2; WOLIN SS, 1960, POLITICS VISION, P376	48	4	4	0	2	ACAD MANAGEMENT	BRIARCLIFF MANOR	PACE UNIV, PO BOX 3020, 235 ELM RD, BRIARCLIFF MANOR, NY 10510-8020	0001-4273			ACAD MANAGE J	Acad. Manage. J.		1966	9	3					233	245		10.2307/255121				13	Business; Management	Business & Economics	ZL330	WOS:A1966ZL33000005					2019-01-18	
J	PONDY, LR				PONDY, LR			SYSTEMS THEORY OF ORGANIZATIONAL CONFLICT	ACADEMY OF MANAGEMENT JOURNAL			English	Article									UNIV PITTSBURGH,PITTSBURGH,PA							BLAU PM, 1962, DYNAMICS BUREAUCRACY; BLAU PM, 1962, FORMAL ORG, P138; CYERT RM, 1963, BEHAVIORAL THEORY FI; Homans G. C., 1950, HUMAN GROUP; Kelley HH, 1951, HUM RELAT, V4, P39, DOI 10.1177/001872675100400102; March J. G., 1958, ORGANIZATIONS; MARCH JG, 1962, J POLITICS       DEC; Maslow AH, 1943, PSYCHOL REV, V50, P370, DOI 10.1037/h0054346; PONDY LR, 1964, PITTSBURGH BUSINESS, V34, P1; SIMON H., 1957, MODELS MAN; SIMON HA, 1964, ADMIN SCI QUART, V9, P1, DOI 10.2307/2391519; STIMPSON OV, 1964, J ABNORMAL SOCIAL PS, V68, P558; THOMPSON V, 1961, MODERN ORG, P22; WHITE H, 1961, AM J SOCIOL, V67, P185, DOI 10.1086/223084; ZALD MN, SOC Q	15	17	18	0	5	ACAD MANAGEMENT	BRIARCLIFF MANOR	PACE UNIV, PO BOX 3020, 235 ELM RD, BRIARCLIFF MANOR, NY 10510-8020	0001-4273			ACAD MANAGE J	Acad. Manage. J.		1966	9	3					246	256		10.2307/255122				11	Business; Management	Business & Economics	ZL330	WOS:A1966ZL33000006					2019-01-18	
J	MEINHART, WA				MEINHART, WA			ARTIFICIAL INTELLIGENCE, COMPUTER SIMULATION OF HUMAN COGNITIVE AND SOCIAL PROCESSES, AND MANAGEMENT THOUGHT	ACADEMY OF MANAGEMENT JOURNAL			English	Article									OKLAHOMA STATE UNIV,STILLWATER,OK							ASHBY WR, 1962, COMPUTER APPLICATION, P452; BALES RF, 1959, SOC TODAY; CLARKSON GPE, 1963, BEHAVIORAL THEORY FI, P253; COE RM, 1964, BEHAV SCI, V9, P186, DOI 10.1002/bs.3830090215; COHEN KJ, 1960, COMPUTER MODELS SHOE; COLBY K, 1963, COMPUTER SIMULATION; FEIGENBAUM EA, 1963, IEEE T INFORM THEORY, V9, P248, DOI 10.1109/TIT.1963.1057864; FEIGENBAUM EA, 1963, S SIMULATION MODELS, P101; FEIGENBAUM EA, 1961, P WESTERN JOINT COMP, V19, P121; FELDMAN J, 1963, S SIMULATION MODELS, P55; GELERNTER HL, 1958, IBM J RES DEV, V2, P336, DOI 10.1147/rd.24.0336; Green BF., 1963, DIGITAL COMPUTERS RE; GREEN BF, COMPUTERS THOUGHT, P207; Greenlaw P. S., 1962, BUSINESS SIMULATION; GULLAHORN JT, COMPUTER THOUGHT, P375; HOMANS GC, 1961, SOCIAL BEHAVIOR ITS; HORMANN A, 1965, BEHAV SCI, V10, P88; KERNAN JB, 1965, ADV MANAGEMENT J, V30, P69; KUHN A, 1963, STUDY SOC UNIFIED AP, P104; MARCH JG, 1958, ORGANIZATIONS, P137; MCPHEE WN, 1961, PUBLIC OPINION Q SUM, P184; MINSKY M, 1961, JAN P I RAD ENG, P8; NEISSER U, 1963, SCIENCE, V139, P193, DOI 10.1126/science.139.3551.193; NEWELL A, 1961, SCIENCE, V134, P2011; NEWELL A, 1962, SELFORGANIZING SYSTE, P393; NEWELL A, 1963, IEEE T INFORMATION T, P71; NEWELL A, 1956, IRE T INFORMATION TH, V9, P61; Orcutt G., 1961, MICROANALYSIS SOCIOE; REITMAN WR, 1964, BEHAV SCI, V9, P270, DOI 10.1002/bs.3830090312; ROSENBLATT F, 1958, PSYCHOL REV, V65, P386, DOI 10.1037/h0042519; SELFRIDGE O, 1955 P WEST JOINT CO, P91; SIMON HA, 1959, AM ECON REV, V49, P253; SIMON HA, 1963, PSYCHOL REV, V70, P534, DOI 10.1037/h0043901; TONGE FM, 1960, MANAGE SCI, V7, P21, DOI 10.1287/mnsc.7.1.21; Turing A. M., 1963, COMPUT THOUGHT, P11; UHR L, COMPUTERS THOUGHT, P251; WANG H, 1960, IBM J RES DEV, V4, P2, DOI 10.1147/rd.41.0002; WICKELGREN WA, 1962, PSYCHOL REP, V10, P815	38	1	1	2	8	ACAD MANAGEMENT	BRIARCLIFF MANOR	PACE UNIV, PO BOX 3020, 235 ELM RD, BRIARCLIFF MANOR, NY 10510-8020	0001-4273			ACAD MANAGE J	Acad. Manage. J.		1966	9	4					294	307		10.2307/254948				14	Business; Management	Business & Economics	ZL331	WOS:A1966ZL33100002					2019-01-18	
J	PETIT, TA				PETIT, TA			MAKING SOCIALLY RESPONSIBLE DECISIONS	ACADEMY OF MANAGEMENT JOURNAL			English	Article									UNIV ARIZONA,TUCSON,AZ							ARROW KJ, 1951, SOCIAL CHOICE INDIVI, P22; Braybrooke D., 1963, STRATEGY DECISION; EELLS R, 1959, BUSINESS HORIZON WIN, P33; FLETCHER J, 1966, SITUATION ETHICS NEW, P22; HITCH CJ, 1939, OXFORD EC PAPERS MAY; LESTER RA, 1946, AM EC REV        MAR; LEYS WAR, 1943, PUBLIC ADM REV   WIN, P17; MCGUIRE JW, 1964, THEORIES BUSINESS BE, pCH6; POPPER KR, 1945, OPEN SOC ITS ENEMIES, V1, P139; SIMON HA, 1961, ADM BEHAVIOR, P45; SIMON HA, 1957, MODELS MAN, P198; TILLICH P, 1951, SYSTEMATIC THEOLOGY, V1, P152; 1966, NY TIMES        0703, P1	13	0	0	1	2	ACAD MANAGEMENT	BRIARCLIFF MANOR	PACE UNIV, PO BOX 3020, 235 ELM RD, BRIARCLIFF MANOR, NY 10510-8020	0001-4273			ACAD MANAGE J	Acad. Manage. J.		1966	9	4					308	317		10.2307/254949				10	Business; Management	Business & Economics	ZL331	WOS:A1966ZL33100003					2019-01-18	
J	BROWN, WB				BROWN, WB			SYSTEMS, BOUNDARIES, AND INFORMATION FLOW	ACADEMY OF MANAGEMENT JOURNAL			English	Article									INDIANA UNIV,BLOOMINGTON,IN							ANTHONY RN, 1965, PLANNING CONTROL SYS; ASHBY WR, 1963, CYBERNETICS; ASHBY WR, YB SOC GENERAL SYSTE, V1; ASHBY WR, YB SOC GENERAL SYSTE, V2; ASHBY WR, YB SOC GENERAL SYSTE, V3; ASHBY WR, 1958, GENERAL SYSTEMS YB, V3; BEER S, 1959, CYBERNETICS MANAGEME; BRIGGS GE, 1964, NEW PERSPECTIVES ORG, P479; Daniel D. R., 1961, HARVARD BUSINESS SEP; DILL WR, 1958, ADM SCI Q        MAR; GUETZKOW H, 1965, HDB ORG; Haberstroh CJ., 1965, HDB ORG, P1171; HOPKINS RC, 1961, IRE T ENG MGT, V8; JOHNSON, 1963, THEORY MANAGEMENT SY; KATZ D, 1966, SOCIAL PSYCHOLOGY OR, P21; MEIER RL, LIBRI, V13, P1; MILLER JG, AM J PSYCHIATRY, P695; Parsons T., 1960, STRUCTURE PROCESS MO; ROBERTS EB, 1964, MANAGEMENT CONTROLS, P124; STRAUSS G, 1962, ADM SCI Q        SEP; THOMPSON JD, 1962, AM J SOC         NOV; ZALKIND SS, 1962, ADM SCI Q        SEP	22	28	28	0	4	ACAD MANAGEMENT	BRIARCLIFF MANOR	PACE UNIV, PO BOX 3020, 235 ELM RD, BRIARCLIFF MANOR, NY 10510-8020	0001-4273			ACAD MANAGE J	Acad. Manage. J.		1966	9	4					318	327		10.2307/254950				10	Business; Management	Business & Economics	ZL331	WOS:A1966ZL33100004					2019-01-18	
J	PRASAD, SB				PRASAD, SB			NEW MANAGERIALISM IN CZECHOSLOVAKIA AND SOVIET-UNION	ACADEMY OF MANAGEMENT JOURNAL			English	Article									UNIV NEVADA,LAS VEGAS,NV							BENOIT E, 1966, COLUMBIA J WORLD SPR, P12; BERGSON A, 1964, EC SOVIET PLANNING, P76; BERLINER J, 1960, COMPARISONS US SOV 1; Berliner J., 1957, FACTORY MANAGER USSR; FLORINSKY M, 1964, CURRENT HISTORY  NOV, P269; GRANICK D, 1960, RED EXECUTIVE; HOEFFDING O, 1959, AER              MAY, P65; JAMES R, 1959, MANAGEMENT IND WORLD, P322; LIBERMAN E, 1965, COMMUNICATION   0305; LIBERMAN E, 1966, ECONOMIST       0226; LIBERMAN YG, 1962, PRAVDA MOSCOW   0909; LOEBL E, 1963, KULTURNY SIVOT; MARES V, 1964, CURRENT HISTORY  NOV, P272; MARRIS R, 1964, EC THEORY MANAGERIAL, P1; RICHMAN B, 1964, SOVIET MANAGEMENT, P8; RICHMAN B, 1963, MANAGEMENT INT, P67; SCHWARTZ H, 1954, RUSSIAS SOVIET EC, P183; SCHWARTZ H, 1962, NY TIMES        1125, P46; SIK O, 1963, NOVA MYSL; SPULBER N, 1962, SOVIET EC, P10; TABORSKY E, 1965, CURRENT HISTORY  MAR, P168; THOMPSON V, 1961, MODERN ORG, P79; TINBERGEN J, 1966, COLUMBIA J WORLD SUM, P148; TURGEON L, 1963, CONTRASTING EC, P215; 1966, STATIST         0826, P506; 1965, TIME            1008, P48; 1967, MANAGEMENT INT PERSP, P136; 1964, FIGYELO         0101; TIME            0212; 1966, BUSINESS WEEK   0416, P76; 1966, ECONOMIST       0611, P1187; 1965, BUSINESS WEEK   1009, P202	32	1	1	0	1	ACAD MANAGEMENT	BRIARCLIFF MANOR	PACE UNIV, PO BOX 3020, 235 ELM RD, BRIARCLIFF MANOR, NY 10510-8020	0001-4273			ACAD MANAGE J	Acad. Manage. J.		1966	9	4					328	336		10.2307/254951				9	Business; Management	Business & Economics	ZL331	WOS:A1966ZL33100005					2019-01-18	
J	LITZINGER, WD; SCHAEFER, TE				LITZINGER, WD; SCHAEFER, TE			PERSPECTIVE - MANAGEMENT PHILOSOPHY ENIGMA	ACADEMY OF MANAGEMENT JOURNAL			English	Article									UNIV SAN FRANCISCO,SAN FRANCISCO,CA							ANDERSON HR, 1954, PERSONNEL ADM, V17, P1; CHESTER I, 1938, FUNCTIONS EXECUTIVE, P21; DAVIS RC, 1951, FUNDAMENTALS TOP MAN, P6; DAVIS RC, 1959, ADV MANAGEMENT, V24, P5; DEWEY J, ENCYCLOPAEDIA SOCIAL, V11, P119; DEWEY J, 1911, CATHOLIC ENCYCLOPAED, V12, P25; DIMOCK M, 1958, PHILOSOPHY ADM CREAT; FETZER W, 1948, OFFICE EXECUTIVE, V33, P14; HELMER O, 1959, MANAGE SCI, V6, P25, DOI 10.1287/mnsc.6.1.25; JONES M, 1960, J ACADEMY MANAGEMENT, V3; KOONTZ H, 1961, J ACAD MANAGEMENT, V4, P174; LEYS AR, 1952, ETHICS POLICY DECISI; MEE JF, 1956, BUSINESS HORIZONS, P5; NEWMAN LE, 1959, ADV MANAGEMENT   FEB, P6; NORRIS LW, 1960, HARVARD BUS REV, V38, P72; OHMAN AO, 1957, HARVARD BUSINESS REV, V35, P41; PETIT TA, 1965, ARIZONA REV      NOV; PETIT TA, 1965, ARIZONA REV      DEC; PETIT TA, 1966, ARIZONA REV      JAN; SELEKMAN B, 1959, MORAL PHILOSOPHY MAN; SHELDON O, 1923, PHILOSOPHY MANAGEMEN, P27; STOVER CF, 1958, PUBLIC ADMIN REV, V18, P21, DOI 10.2307/973731; SULLIVAN AM, 1963, ADV MANAGEMENT O APR, P7; THOMPSON S, 1958, MANAGEMENT CREEDS PH; URWICK LF, 1960, CALIF MANAGE REV, V2, P77, DOI 10.2307/41166247; WORTMAN MS, 1961, ADV MANAGEMENT, V26, P11; COLLIERS ENCYCLOPEDI, V15, P668; 1902, DICTIONARY PHILOSOPH, V2, P291; COLLIERS ENCYCLOPEDI, V7, P432	29	4	4	0	2	ACAD MANAGEMENT	BRIARCLIFF MANOR	PACE UNIV, PO BOX 3020, 235 ELM RD, BRIARCLIFF MANOR, NY 10510-8020	0001-4273			ACAD MANAGE J	Acad. Manage. J.		1966	9	4					337	343		10.2307/254952				7	Business; Management	Business & Economics	ZL331	WOS:A1966ZL33100006					2019-01-18	
J	GULICK, L				GULICK, L			MANAGEMENT IS A SCIENCE	ACADEMY OF MANAGEMENT JOURNAL			English	Article																	0	5	5	0	2	ACAD MANAGEMENT	BRIARCLIFF MANOR	PACE UNIV, PO BOX 3020, 235 ELM RD, BRIARCLIFF MANOR, NY 10510-8020	0001-4273			ACAD MANAGE J	Acad. Manage. J.		1965	8	1					7	13		10.2307/255127				7	Business; Management	Business & Economics	CGH77	WOS:A1965CGH7700001					2019-01-18	
J	MEE, JF				MEE, JF			PATER-FAMILIAE-ET-MAGISTER	ACADEMY OF MANAGEMENT JOURNAL			English	Article																DAVIS RC, 1964, NOV MAN S OH STAT U; EMERSON, 1913, 12 PRINCIPLES EFFICI; EMERSON, EFFICIENCY BASIS OPE; GANTT, WORK WAGES PROFITS; GANTT, 1916, IND LEADERSHIP; GILBRETH, MOTION STUDY; GILBRETH L, 1913, PSYCHOL MANAGEMENT; KIMBALL DS, 1913, PRINCIPLES IND ORG; Munsterberg H, 1913, PSYCHOL IND EFFICIEN; SCOTT WD, INCREASING HUMAN EFF; TAYLOR, PRINCIPLES SCI MANAG	11	2	2	0	1	ACAD MANAGEMENT	BRIARCLIFF MANOR	PACE UNIV, PO BOX 3020, 235 ELM RD, BRIARCLIFF MANOR, NY 10510-8020	0001-4273			ACAD MANAGE J	Acad. Manage. J.		1965	8	1					14	23		10.2307/255128				10	Business; Management	Business & Economics	CGH77	WOS:A1965CGH7700002					2019-01-18	
J	LIPSTREU, O; REED, KA				LIPSTREU, O; REED, KA			A NEW LOOK AT THE ORGANIZATIONAL IMPLICATIONS OF AUTOMATION	ACADEMY OF MANAGEMENT JOURNAL			English	Article																LIPSTREU O, 1960, J ACADEMY MANAGE AUG, P119; LIPSTREU O, 1964, TRANSITION AUTOMATIO	2	0	0	1	4	ACAD MANAGEMENT	BRIARCLIFF MANOR	PACE UNIV, PO BOX 3020, 235 ELM RD, BRIARCLIFF MANOR, NY 10510-8020	0001-4273			ACAD MANAGE J	Acad. Manage. J.		1965	8	1					24	31		10.2307/255129				8	Business; Management	Business & Economics	CGH77	WOS:A1965CGH7700003					2019-01-18	
J	DELBECQ, AL				DELBECQ, AL			MANAGERIAL LEADERSHIP-STYLES IN PROBLEM-SOLVING CONFERENCES .2.	ACADEMY OF MANAGEMENT JOURNAL			English	Article																Bales R. F., 1955, SMALL GROUPS STUDIES, P424; BERKOWITZ L, SHARING LEADERSHIP S; HALL R, 1962, ADM SCI Q        DEC, P298; MERTON RK, 1940, SOC FORCES, V17, P560; Thompson V., 1961, MODERN ORG; ZELDITCH M, 1961, COMPLEX ORGANIZATION, P464	6	3	3	1	5	ACAD MANAGEMENT	BRIARCLIFF MANOR	PACE UNIV, PO BOX 3020, 235 ELM RD, BRIARCLIFF MANOR, NY 10510-8020	0001-4273			ACAD MANAGE J	Acad. Manage. J.		1965	8	1					32	43		10.2307/255130				12	Business; Management	Business & Economics	CGH77	WOS:A1965CGH7700004					2019-01-18	
J	PRASAD, SB				PRASAD, SB			THE PROFILE OF THE MANAGERIAL MIND	ACADEMY OF MANAGEMENT JOURNAL			English	Article																COCHRAN TC, 1964, BEHAVIORAL SCI   APR, P111; EWING DW, 1964, MANAGERIAL MIND; MILLER D, 1960, EXECUTIVE DECISIONS, P10; SUMMER CE, 1964, MANAGERIAL MIND; 1959, HARVARD BUSINESS JAN	5	0	0	0	1	ACAD MANAGEMENT	BRIARCLIFF MANOR	PACE UNIV, PO BOX 3020, 235 ELM RD, BRIARCLIFF MANOR, NY 10510-8020	0001-4273			ACAD MANAGE J	Acad. Manage. J.		1965	8	1					44	47		10.2307/255131				4	Business; Management	Business & Economics	CGH77	WOS:A1965CGH7700005					2019-01-18	
J	SEABURY, P				SEABURY, P			MANAGEMENT PERSPECTIVE - FROM AN ACADEMIC BESTIARY	ACADEMY OF MANAGEMENT JOURNAL			English	Article																1959, W POLITICAL Q, V12, P962	1	0	0	0	1	ACAD MANAGEMENT	BRIARCLIFF MANOR	PACE UNIV, PO BOX 3020, 235 ELM RD, BRIARCLIFF MANOR, NY 10510-8020	0001-4273			ACAD MANAGE J	Acad. Manage. J.		1965	8	1					48	49		10.5465/AMJ.1965.4297187				2	Business; Management	Business & Economics	CGH77	WOS:A1965CGH7700006					2019-01-18	
J	GRUNEWALD, D				GRUNEWALD, D			COMMENT - BUSINESSMEN MUST GET ACTIVE IN POLITICS	ACADEMY OF MANAGEMENT JOURNAL			English	Article																	0	0	0	0	1	ACAD MANAGEMENT	BRIARCLIFF MANOR	PACE UNIV, PO BOX 3020, 235 ELM RD, BRIARCLIFF MANOR, NY 10510-8020	0001-4273			ACAD MANAGE J	Acad. Manage. J.		1965	8	1					50	52		10.2307/255133				3	Business; Management	Business & Economics	CGH77	WOS:A1965CGH7700007					2019-01-18	
J	KAST, FE				KAST, FE			MANAGEMENT EDUCATION IN EUROPE	ACADEMY OF MANAGEMENT JOURNAL			English	Article																CAMBIEN S, 1962, 8TH IUC C DELFT, P55; DESTAING OG, 1959, EUROPEAN PRODUCTIVIT, V31, P39; Franks L., 1963, BRIT BUSINESS SCH; MCCLELLAND G, 1964, OXFORD MAGAZINE 0604, P350; REDLICH F, 1957, BUS HIST REV, V31, P35, DOI 10.2307/3111728; STOHR R, 1962, MANAGEMENT INT, V3, P15; TALPAERT R, 1962, 8TH IUC C DELFT, P24; 1958, EUROPEAN PRODUCTIVIT; 1963, HIGHER ED, P45; 1964, MANAGEMENT ED SCANDI; 1962, DEV BODY MANAGEMENT, P39; 1963, ISSUES MANAGEMENT ED, P17; 1963, DIRECTORY ACTIVITIES	13	5	5	0	1	ACAD MANAGEMENT	BRIARCLIFF MANOR	PACE UNIV, PO BOX 3020, 235 ELM RD, BRIARCLIFF MANOR, NY 10510-8020	0001-4273			ACAD MANAGE J	Acad. Manage. J.		1965	8	2					75	89		10.2307/255215				15	Business; Management	Business & Economics	CGH78	WOS:A1965CGH7800001					2019-01-18	
J	FARMER, RN				FARMER, RN			MANAGEMENT INTENSITY AND TRANSPORTATION DEVELOPMENT	ACADEMY OF MANAGEMENT JOURNAL			English	Article																ADAMS W, 1957, TRUCKING MERGERS CON; CAVES R, 1962, AIR TRANSPORT ITS RE, P55; COOHENBOO L, 1955, CRUDE OIL PIPELINES, P8; DAVIS HD, 1961, EC DEV VENEZUELA, P244; DAVIS HD, 1963, EC DEV SPAIN, P169; DEERING CL, 1949, NATIONAL TRANSPORTAT; DEWOLFE MR, USDA525 MARK EC DIV, P20; FARMER RN, 1962, J IND ECON, V10, P174, DOI 10.2307/2097724; FARMER RN, 1959, J IND ECON, V7, P199, DOI 10.2307/2097816; FARMER RN, 1960, LAND EC, V36, P38; HARBISON F, 1956, Q J ECON, V70, P364, DOI 10.2307/1884230; HAWKINS EK, 1958, ROAD TRANSPORT NIGER, P59; KELFCOHEN R, 1959, NATIONALIZATION BRIT; MEYER JR, 1960, EC COMPETITION TRANS, P33; OI W, 1961, EC VALUE MERCHANT MA, P278; PEGRUM DF, 1963, TRANSPORTATION EC PU, P251; RAMANADHAM VV, 1959, PROBLEMS PUBLIC ENTE; SITES JR, 1963, QUEST CRISIS; 1962, STATISTICAL ANAL WOR, P137; 1956, MIDDLE E OIL DEV, P17	20	0	0	0	1	ACAD MANAGEMENT	BRIARCLIFF MANOR	PACE UNIV, PO BOX 3020, 235 ELM RD, BRIARCLIFF MANOR, NY 10510-8020	0001-4273			ACAD MANAGE J	Acad. Manage. J.		1965	8	2					90	106		10.2307/255216				17	Business; Management	Business & Economics	CGH78	WOS:A1965CGH7800002					2019-01-18	
J	MULLEN, JH				MULLEN, JH			DIFFERENTIAL LEADERSHIP MODES AND PRODUCTIVITY IN A LARGE ORGANIZATION	ACADEMY OF MANAGEMENT JOURNAL			English	Article																LIKERT R, 1955, AMA GENERAL MANAGEME, V178	1	1	1	0	3	ACAD MANAGEMENT	BRIARCLIFF MANOR	PACE UNIV, PO BOX 3020, 235 ELM RD, BRIARCLIFF MANOR, NY 10510-8020	0001-4273			ACAD MANAGE J	Acad. Manage. J.		1965	8	2					107	126		10.2307/255217				20	Business; Management	Business & Economics	CGH78	WOS:A1965CGH7800003					2019-01-18	
J	BELL, GD				BELL, GD			THE INFLUENCE OF TECHNOLOGICAL COMPONENTS OF WORK UPON MANAGEMENT CONTROL	ACADEMY OF MANAGEMENT JOURNAL			English	Article																BLAU PM, 1955, DYNAMICS BUREAUCRACY, P24; FAUNCE WA, 1958, AM SOCIOL REV, V23, P401, DOI 10.2307/2088803; March J. G., 1958, ORGANIZATIONS; SIMPSON RL, 1959, ADM SCI Q        SEP, P188; STINCHCOMBE AL, 1959, ADM SCI Q        SEP, P177; WALKER C, 1957, AUTOMATIC FACTORY	6	6	6	0	1	ACAD MANAGEMENT	BRIARCLIFF MANOR	PACE UNIV, PO BOX 3020, 235 ELM RD, BRIARCLIFF MANOR, NY 10510-8020	0001-4273			ACAD MANAGE J	Acad. Manage. J.		1965	8	2					127	132		10.2307/255218				6	Business; Management	Business & Economics	CGH78	WOS:A1965CGH7800004					2019-01-18	
J	CANGELOSI, VE				CANGELOSI, VE			THE CARNEGIE TECH MANAGEMENT GAME - A LEARNING-EXPERIENCE IN PRODUCTION MANAGEMENT	ACADEMY OF MANAGEMENT JOURNAL			English	Article																CANGELOSI VE, 1964, ONR125 CALTECH MEM; COHEN KJ, 1964, CARNEGIE TECH MANAGE	2	1	1	0	2	ACAD MANAGEMENT	BRIARCLIFF MANOR	PACE UNIV, PO BOX 3020, 235 ELM RD, BRIARCLIFF MANOR, NY 10510-8020	0001-4273			ACAD MANAGE J	Acad. Manage. J.		1965	8	2					133	138		10.2307/255219				6	Business; Management	Business & Economics	CGH78	WOS:A1965CGH7800005					2019-01-18	
J	HILL, LS				HILL, LS			PERSPECTIVE - SOME POSSIBLE PITFALLS IN THE DESIGN AND USE OF PERT NETWORKING	ACADEMY OF MANAGEMENT JOURNAL			English	Article																	0	0	0	0	2	ACAD MANAGEMENT	BRIARCLIFF MANOR	PACE UNIV, PO BOX 3020, 235 ELM RD, BRIARCLIFF MANOR, NY 10510-8020	0001-4273			ACAD MANAGE J	Acad. Manage. J.		1965	8	2					139	145		10.2307/255220				7	Business; Management	Business & Economics	CGH78	WOS:A1965CGH7800006					2019-01-18	
J	URWICK, L				URWICK, L			COMMENT - LEADERSHIP AND LANGUAGE	ACADEMY OF MANAGEMENT JOURNAL			English	Article																Churchill W., 1930, MY EARLY LIFE; GORDON RA, 1959, HIGHER ED BUSINESS, P116; GUEDALLA P, 1941, CHURCHILL PORTRAIT, P291; KOONTZ H, 1964, UNIFIED THEORY MANAG, P104; Shakespeare William, MERCHANT VENICE; VONCLAUSEWITZ C, 1940, WAR, P100	6	0	0	0	1	ACAD MANAGEMENT	BRIARCLIFF MANOR	PACE UNIV, PO BOX 3020, 235 ELM RD, BRIARCLIFF MANOR, NY 10510-8020	0001-4273			ACAD MANAGE J	Acad. Manage. J.		1965	8	2					146	149		10.2307/255221				4	Business; Management	Business & Economics	CGH78	WOS:A1965CGH7800007					2019-01-18	
J	BORCH, K				BORCH, K			MODELS FOR HIERARCHIAL DECISIONS INVOLVING INVENTORIES	ACADEMY OF MANAGEMENT JOURNAL			English	Article																ARROW KJ, 1961, ECONOMETRICA, P250; KUHN HW, 1951, 2ND P BERK S MATH ST, P481; PRABHU NU, 1964, J APPLIED PROBABILIT, P1; VONNEUMANN J, 1944, THEORY GAMES EC BEHA; WHITIN TM, 1953, THEORY INVENTORY MAN	5	0	0	0	3	ACAD MANAGEMENT	BRIARCLIFF MANOR	PACE UNIV, PO BOX 3020, 235 ELM RD, BRIARCLIFF MANOR, NY 10510-8020	0001-4273			ACAD MANAGE J	Acad. Manage. J.		1965	8	3					179	189		10.2307/254786				11	Business; Management	Business & Economics	CGH79	WOS:A1965CGH7900001					2019-01-18	
